SimulationType                MonteCarlo
NumberOfCycles                500
NumberOfInitializationCycles  500
PrintEvery                    100
RestartFile                   no

Forcefield                    local
UseChargesFromCIFFile         no
CutOffVDW                     12.8

Framework                     0
FrameworkName BrC1=CC=C(C2=CC=C(C3=CC=C(C4=CN=C(C5=CC=C(C6=CC=C(C7=CC=C(Br)S7)S6)S5)C=C4)S3)S2)S1_framework
HeliumVoidFraction            0.819214
UnitCells                     3 3 3
ExternalTemperature           298.0
ExternalPressure              101325

Component 0 MoleculeName             O2
            MoleculeDefinition       TraPPE
            TranslationProbability   0.5
            ReinsertionProbability   0.5
            SwapProbability          1.0
            CreateNumberOfMolecules  0

