SimulationType                MonteCarlo
NumberOfCycles                500
NumberOfInitializationCycles  500
PrintEvery                    100
RestartFile                   no

Forcefield                    local
UseChargesFromCIFFile         no
CutOffVDW                     12.8

Framework                     0
FrameworkName SC1=NC(C2=CN=C(Br)C=N2)=C(S)N=C1C1=CN=C(Br)C=N1_framework
HeliumVoidFraction            0.819214
UnitCells                     3 3 3
ExternalTemperature           298.0
ExternalPressure              101325

Component 0 MoleculeName             O2
            MoleculeDefinition       TraPPE
            TranslationProbability   0.5
            ReinsertionProbability   0.5
            SwapProbability          1.0
            CreateNumberOfMolecules  0

