SimulationType                MonteCarlo
NumberOfCycles                1000
NumberOfInitializationCycles  1000
PrintEvery                    100
RestartFile                   no

Forcefield                    local
UseChargesFromCIFFile         no
CutOffVDW                     12.8

Framework                     0
FrameworkName                 1
HeliumVoidFraction            0.819214
UnitCells                     3 3 3
ExternalTemperature           298.0
ExternalPressure              101325

Component 0 MoleculeName             O2
            MoleculeDefinition       TraPPE
            TranslationProbability   0.5
            ReinsertionProbability   0.5
            SwapProbability          1.0
            CreateNumberOfMolecules  0

