SimulationType                MonteCarlo
NumberOfCycles                500
NumberOfInitializationCycles  500
PrintEvery                    100
RestartFile                   no

Forcefield                    local
UseChargesFromCIFFile         no
CutOffVDW                     12.8

Framework                     0
FrameworkName BrC1=NC=C(C2=CN=C(C3=CN=C4C(=C3)C=CC3=CC(C5=NC=C(C6=CN=C(Br)C=N6)N=C5)=CN=C34)C=N2)N=C1_framework
HeliumVoidFraction            0.819214
UnitCells                     3 3 3
ExternalTemperature           298.0
ExternalPressure              101325

Component 0 MoleculeName             O2
            MoleculeDefinition       TraPPE
            TranslationProbability   0.5
            ReinsertionProbability   0.5
            SwapProbability          1.0
            CreateNumberOfMolecules  0

