%BLOCK LATTICE_CART
ang    # angstrom units
  58.324100000000    0.000000000000     0.000000000000   
 -29.114320982539    50.881763137451    0.000000000000   
  0.000000000000     0.000000000000     7.000000000000   
%ENDBLOCK LATTICE_CART

%BLOCK POSITIONS_FRAC
C      0.119970333333     0.224076000000     0.333331666667   
O      0.127737333333     0.225439000000     0.333330333333   
C      0.112945000000     0.214966666667     0.333332666667   
C      0.114304666667     0.208252000000     0.000000000000   
N      0.122999000000     0.209822333333     0.000000000000   
C      0.103962666667     0.213349666667     0.000001000000   
O      0.097649333333     0.205498333333     0.000001666667   
C      0.101809000000     0.220355333333     0.000002000000   
C      0.093543000000     0.218664666667     0.000001666667   
N      0.086707000000     0.209731666667     0.000000000000   
C      0.109172000000     0.229392000000     0.000001333333   
O      0.107460666667     0.235450333333     0.000002333333   
C      0.118299333333     0.231415000000     0.333333000000   
C      0.124790333333     0.239658666667     0.333332666667   
N      0.123490666667     0.246977000000     0.000000000000   
H      0.108926666667     0.201715666667     0.000000333333   
H      0.091802333333     0.223682666667     0.000002666667   
H      0.131351666667     0.240836000000     0.333332333333   
C      0.213363000000     0.109257333333     0.333331666667   
O      0.205596000000     0.107894333333     0.333330333333   
C      0.220388333333     0.118366666667     0.333332666667   
C      0.219028666667     0.125081333333     0.000000000000   
N      0.210334333333     0.123511000000     0.000000000000   
C      0.229370666667     0.119983666667     0.000001000000   
O      0.235684000000     0.127835000000     0.000001666667   
C      0.231524333333     0.112978000000     0.000002000000   
C      0.239790333333     0.114668666667     0.000001666667   
N      0.246626333333     0.123601666667     0.000000000000   
C      0.224161333333     0.103941333333     0.000001333333   
O      0.225872666667     0.097883000000     0.000002333333   
C      0.215034000000     0.101918333333     0.333333000000   
C      0.208543000000     0.093674666667     0.333332666667   
N      0.209842666667     0.086356333333     0.000000000000   
H      0.224406666667     0.131617666667     0.000000333333   
H      0.241531000000     0.109650666667     0.000002666667   
H      0.201981666667     0.092497333333     0.333332333333   
C      0.205031333333     0.128752000000     0.000000000000   
C      0.204200000000     0.131465000000     0.273904333333   
C      0.199438333333     0.136108666667     0.276446000000   
C      0.196848000000     0.136783000000     0.004326333333   
C      0.191888666667     0.141016666667     0.022803000000   
C      0.186778000000     0.142986000000     0.316783666667   
C      0.182788666667     0.147238333333     0.016171333333   
C      0.184913000000     0.148509000000     0.080194333333   
C      0.182091333333     0.152585666667     0.127712666667   
C      0.184311000000     0.153959666667     0.191584333333   
C      0.180300666667     0.158178000000     0.224424333333   
C      0.175098666667     0.160024333333     0.185170666667   
C      0.169870666667     0.164181333333     0.201474666667   
C      0.169272333333     0.170212333333     0.161825666667   
N      0.164574333333     0.174254333333     0.175239000000   
C      0.160141666667     0.172264333333     0.231086000000   
C      0.155168666667     0.176801000000     0.244374666667   
C      0.153171666667     0.179113000000     0.302382666667   
C      0.148095333333     0.183389333333     0.296060000000   
C      0.146267333333     0.184299666667     0.233345666667   
C      0.141208000000     0.188261000000     0.210992333333   
C      0.135415333333     0.189742000000     0.246468333333   
C      0.131509000000     0.193822000000     0.210613666667   
C      0.134352666667     0.195409000000     0.148098333333   
C      0.131709000000     0.199505000000     0.099650666667   
C      0.128054333333     0.204829000000     0.109737666667   
C      0.126092000000     0.207791333333     0.051951000000   
C      0.128302000000     0.204581333333     0.000000000000   
S      0.132628666667     0.198169333333     0.019271666667   
S      0.141800666667     0.191942666667     0.134501333333   
S      0.150780666667     0.179881666667     0.183212333333   
C      0.160365333333     0.166359000000     0.274082666667   
C      0.165272333333     0.162309000000     0.259015666667   
S      0.175105666667     0.156497666667     0.109129666667   
S      0.191762000000     0.144452333333     0.099011333333   
S      0.200258666667     0.131651666667     0.057852666667   
H      0.206817666667     0.130246666667     0.230795666667   
H      0.198051666667     0.138867000000     0.234863666667   
H      0.185830666667     0.141427000000     0.266484000000   
H      0.178543333333     0.149240666667     0.326254666667   
H      0.188644333333     0.152050333333     0.214596666667   
H      0.181285333333     0.159822000000     0.274600666667   
H      0.172719333333     0.172158000000     0.116498666667   
H      0.155308333333     0.177891666667     0.014407666667   
H      0.145967000000     0.185735000000     0.002887333333   
H      0.133933666667     0.187941333333     0.296114333333   
H      0.126764000000     0.195430000000     0.230286333333   
H      0.126867333333     0.206612000000     0.156566666667   
H      0.123242000000     0.212019000000     0.049387333333   
H      0.156730000000     0.164782000000     0.318498000000   
H      0.165365000000     0.157620333333     0.292301666667   
C      0.204427333333     0.075784333333     0.000000000000   
C      0.201710000000     0.072258000000     0.273904333333   
C      0.197074333333     0.062908000000     0.276446000000   
C      0.196409666667     0.059665333333     0.004326333333   
C      0.192186333333     0.050527666667     0.022803000000   
C      0.190234000000     0.043494000000     0.316783666667   
C      0.185987333333     0.035300666667     0.016171333333   
C      0.184703666667     0.036144333333     0.080194333333   
C      0.180627666667     0.029284666667     0.127712666667   
C      0.179239666667     0.030120333333     0.191584333333   
C      0.175027333333     0.021939666667     0.224424333333   
C      0.173199000000     0.014938000000     0.185170666667   
C      0.169053333333     0.005609666667     0.201474666667   
C      0.163007666667     0.332345000000     0.161825666667   
N      0.158975000000     0.323657000000     0.175239000000   
C      0.160990666667     0.321238333333     0.231086000000   
C      0.156463000000     0.311785000000     0.244374666667   
C      0.154153333333     0.307500666667     0.302382666667   
C      0.149887666667     0.298204666667     0.296060000000   
C      0.148982666667     0.295483666667     0.233345666667   
C      0.145032666667     0.286517666667     0.210992333333   
C      0.143573000000     0.279292666667     0.246468333333   
C      0.139498666667     0.271353333333     0.210613666667   
C      0.137894666667     0.272596333333     0.148098333333   
C      0.133798666667     0.265894333333     0.099650666667   
C      0.128476000000     0.256966333333     0.109737666667   
C      0.125513666667     0.252069000000     0.051951000000   
C      0.128723000000     0.257458666667     0.000000000000   
S      0.135134000000     0.268136666667     0.019271666667   
S      0.141337666667     0.283441000000     0.134501333333   
S      0.153393333333     0.304362333333     0.183212333333   
C      0.166912000000     0.327339333333     0.274082666667   
C      0.170951333333     0.002908666667     0.259015666667   
S      0.176735666667     0.018455666667     0.109129666667   
S      0.188741000000     0.046981666667     0.099011333333   
S      0.201540333333     0.068159333333     0.057852666667   
H      0.202920333333     0.076069666667     0.230795666667   
H      0.194314333333     0.058785666667     0.234863666667   
H      0.191801666667     0.044105333333     0.266484000000   
H      0.183998333333     0.029093000000     0.326254666667   
H      0.181135333333     0.036323000000     0.214596666667   
H      0.173374000000     0.021280666667     0.274600666667   
H      0.161041000000     0.000496666667     0.116498666667   
H      0.155368666667     0.310838000000     0.014407666667   
H      0.147544333333     0.293756333333     0.002887333333   
H      0.145385666667     0.279614666667     0.296114333333   
H      0.137907666667     0.265042333333     0.230286333333   
H      0.126693000000     0.254013000000     0.156566666667   
H      0.121286666667     0.245031333333     0.049387333333   
H      0.168509666667     0.325300000000     0.318498000000   
H      0.175653333333     0.007668333333     0.292301666667   
C      0.257071333333     0.128661333333     0.000000000000   
C      0.260620000000     0.129474333333     0.273904333333   
C      0.270017333333     0.134180666667     0.276446000000   
C      0.273272333333     0.136749000000     0.004326333333   
C      0.282455333333     0.141653333333     0.022803000000   
C      0.289517666667     0.146717666667     0.316783666667   
C      0.297754000000     0.150658666667     0.016171333333   
C      0.296913333333     0.148544333333     0.080194333333   
C      0.303811000000     0.151327333333     0.127712666667   
C      0.302979333333     0.149117666667     0.191584333333   
C      0.311202000000     0.153079666667     0.224424333333   
C      0.318232000000     0.158235333333     0.185170666667   
C      0.327606000000     0.163406666667     0.201474666667   
C      0.000916666667     0.163973666667     0.161825666667   
N      0.009647333333     0.168619333333     0.175239000000   
C      0.012064333333     0.173028333333     0.231086000000   
C      0.021565000000     0.177945000000     0.244374666667   
C      0.025872000000     0.179917000000     0.302382666667   
C      0.035213666667     0.184937000000     0.296060000000   
C      0.037946666667     0.186747666667     0.233345666667   
C      0.046956000000     0.191752000000     0.210992333333   
C      0.054208333333     0.197496000000     0.246468333333   
C      0.062189000000     0.201355333333     0.210613666667   
C      0.060949333333     0.198525333333     0.148098333333   
C      0.067689000000     0.201131333333     0.099650666667   
C      0.076666333333     0.204735666667     0.109737666667   
C      0.081591333333     0.206670333333     0.051951000000   
C      0.076171666667     0.204490666667     0.000000000000   
S      0.065434000000     0.200224666667     0.019271666667   
S      0.050058333333     0.191147333333     0.134501333333   
S      0.029022666667     0.182287000000     0.183212333333   
C      0.005919333333     0.172832666667     0.274082666667   
C      0.330306000000     0.167979666667     0.259015666667   
S      0.314688666667     0.158244333333     0.109129666667   
S      0.286026666667     0.141763333333     0.099011333333   
S      0.264731000000     0.133386333333     0.057852666667   
H      0.256791666667     0.126881333333     0.230795666667   
H      0.274164000000     0.135544666667     0.234863666667   
H      0.288897666667     0.147665000000     0.266484000000   
H      0.303988333333     0.154864000000     0.326254666667   
H      0.296750333333     0.144824333333     0.214596666667   
H      0.311870666667     0.152094666667     0.274600666667   
H      0.332769666667     0.160543000000     0.116498666667   
H      0.022519666667     0.177801000000     0.014407666667   
H      0.039685333333     0.187039333333     0.002887333333   
H      0.053877333333     0.198974666667     0.296114333333   
H      0.068525000000     0.206058666667     0.230286333333   
H      0.079636333333     0.205906000000     0.156566666667   
H      0.088668000000     0.209480666667     0.049387333333   
H      0.007957000000     0.176448666667     0.318498000000   
H      0.325511666667     0.167908666667     0.292301666667   
C      0.119970333333     0.224076000000     0.666665000000   
O      0.127737333333     0.225439000000     0.666663666667   
C      0.112945000000     0.214966666667     0.666666000000   
C      0.114304666667     0.208252000000     0.333333333333   
N      0.122999000000     0.209822333333     0.333333333333   
C      0.103962666667     0.213349666667     0.333334333333   
O      0.097649333333     0.205498333333     0.333335000000   
C      0.101809000000     0.220355333333     0.333335333333   
C      0.093543000000     0.218664666667     0.333335000000   
N      0.086707000000     0.209731666667     0.333333333333   
C      0.109172000000     0.229392000000     0.333334666667   
O      0.107460666667     0.235450333333     0.333335666667   
C      0.118299333333     0.231415000000     0.666666333333   
C      0.124790333333     0.239658666667     0.666666000000   
N      0.123490666667     0.246977000000     0.333333333333   
H      0.108926666667     0.201715666667     0.333333666667   
H      0.091802333333     0.223682666667     0.333336000000   
H      0.131351666667     0.240836000000     0.666665666667   
C      0.213363000000     0.109257333333     0.666665000000   
O      0.205596000000     0.107894333333     0.666663666667   
C      0.220388333333     0.118366666667     0.666666000000   
C      0.219028666667     0.125081333333     0.333333333333   
N      0.210334333333     0.123511000000     0.333333333333   
C      0.229370666667     0.119983666667     0.333334333333   
O      0.235684000000     0.127835000000     0.333335000000   
C      0.231524333333     0.112978000000     0.333335333333   
C      0.239790333333     0.114668666667     0.333335000000   
N      0.246626333333     0.123601666667     0.333333333333   
C      0.224161333333     0.103941333333     0.333334666667   
O      0.225872666667     0.097883000000     0.333335666667   
C      0.215034000000     0.101918333333     0.666666333333   
C      0.208543000000     0.093674666667     0.666666000000   
N      0.209842666667     0.086356333333     0.333333333333   
H      0.224406666667     0.131617666667     0.333333666667   
H      0.241531000000     0.109650666667     0.333336000000   
H      0.201981666667     0.092497333333     0.666665666667   
C      0.205031333333     0.128752000000     0.333333333333   
C      0.204200000000     0.131465000000     0.607237666667   
C      0.199438333333     0.136108666667     0.609779333333   
C      0.196848000000     0.136783000000     0.337659666667   
C      0.191888666667     0.141016666667     0.356136333333   
C      0.186778000000     0.142986000000     0.650117000000   
C      0.182788666667     0.147238333333     0.349504666667   
C      0.184913000000     0.148509000000     0.413527666667   
C      0.182091333333     0.152585666667     0.461046000000   
C      0.184311000000     0.153959666667     0.524917666667   
C      0.180300666667     0.158178000000     0.557757666667   
C      0.175098666667     0.160024333333     0.518504000000   
C      0.169870666667     0.164181333333     0.534808000000   
C      0.169272333333     0.170212333333     0.495159000000   
N      0.164574333333     0.174254333333     0.508572333333   
C      0.160141666667     0.172264333333     0.564419333333   
C      0.155168666667     0.176801000000     0.577708000000   
C      0.153171666667     0.179113000000     0.635716000000   
C      0.148095333333     0.183389333333     0.629393333333   
C      0.146267333333     0.184299666667     0.566679000000   
C      0.141208000000     0.188261000000     0.544325666667   
C      0.135415333333     0.189742000000     0.579801666667   
C      0.131509000000     0.193822000000     0.543947000000   
C      0.134352666667     0.195409000000     0.481431666667   
C      0.131709000000     0.199505000000     0.432984000000   
C      0.128054333333     0.204829000000     0.443071000000   
C      0.126092000000     0.207791333333     0.385284333333   
C      0.128302000000     0.204581333333     0.333333333333   
S      0.132628666667     0.198169333333     0.352605000000   
S      0.141800666667     0.191942666667     0.467834666667   
S      0.150780666667     0.179881666667     0.516545666667   
C      0.160365333333     0.166359000000     0.607416000000   
C      0.165272333333     0.162309000000     0.592349000000   
S      0.175105666667     0.156497666667     0.442463000000   
S      0.191762000000     0.144452333333     0.432344666667   
S      0.200258666667     0.131651666667     0.391186000000   
H      0.206817666667     0.130246666667     0.564129000000   
H      0.198051666667     0.138867000000     0.568197000000   
H      0.185830666667     0.141427000000     0.599817333333   
H      0.178543333333     0.149240666667     0.659588000000   
H      0.188644333333     0.152050333333     0.547930000000   
H      0.181285333333     0.159822000000     0.607934000000   
H      0.172719333333     0.172158000000     0.449832000000   
H      0.155308333333     0.177891666667     0.347741000000   
H      0.145967000000     0.185735000000     0.336220666667   
H      0.133933666667     0.187941333333     0.629447666667   
H      0.126764000000     0.195430000000     0.563619666667   
H      0.126867333333     0.206612000000     0.489900000000   
H      0.123242000000     0.212019000000     0.382720666667   
H      0.156730000000     0.164782000000     0.651831333333   
H      0.165365000000     0.157620333333     0.625635000000   
C      0.204427333333     0.075784333333     0.333333333333   
C      0.201710000000     0.072258000000     0.607237666667   
C      0.197074333333     0.062908000000     0.609779333333   
C      0.196409666667     0.059665333333     0.337659666667   
C      0.192186333333     0.050527666667     0.356136333333   
C      0.190234000000     0.043494000000     0.650117000000   
C      0.185987333333     0.035300666667     0.349504666667   
C      0.184703666667     0.036144333333     0.413527666667   
C      0.180627666667     0.029284666667     0.461046000000   
C      0.179239666667     0.030120333333     0.524917666667   
C      0.175027333333     0.021939666667     0.557757666667   
C      0.173199000000     0.014938000000     0.518504000000   
C      0.169053333333     0.005609666667     0.534808000000   
C      0.163007666667     0.332345000000     0.495159000000   
N      0.158975000000     0.323657000000     0.508572333333   
C      0.160990666667     0.321238333333     0.564419333333   
C      0.156463000000     0.311785000000     0.577708000000   
C      0.154153333333     0.307500666667     0.635716000000   
C      0.149887666667     0.298204666667     0.629393333333   
C      0.148982666667     0.295483666667     0.566679000000   
C      0.145032666667     0.286517666667     0.544325666667   
C      0.143573000000     0.279292666667     0.579801666667   
C      0.139498666667     0.271353333333     0.543947000000   
C      0.137894666667     0.272596333333     0.481431666667   
C      0.133798666667     0.265894333333     0.432984000000   
C      0.128476000000     0.256966333333     0.443071000000   
C      0.125513666667     0.252069000000     0.385284333333   
C      0.128723000000     0.257458666667     0.333333333333   
S      0.135134000000     0.268136666667     0.352605000000   
S      0.141337666667     0.283441000000     0.467834666667   
S      0.153393333333     0.304362333333     0.516545666667   
C      0.166912000000     0.327339333333     0.607416000000   
C      0.170951333333     0.002908666667     0.592349000000   
S      0.176735666667     0.018455666667     0.442463000000   
S      0.188741000000     0.046981666667     0.432344666667   
S      0.201540333333     0.068159333333     0.391186000000   
H      0.202920333333     0.076069666667     0.564129000000   
H      0.194314333333     0.058785666667     0.568197000000   
H      0.191801666667     0.044105333333     0.599817333333   
H      0.183998333333     0.029093000000     0.659588000000   
H      0.181135333333     0.036323000000     0.547930000000   
H      0.173374000000     0.021280666667     0.607934000000   
H      0.161041000000     0.000496666667     0.449832000000   
H      0.155368666667     0.310838000000     0.347741000000   
H      0.147544333333     0.293756333333     0.336220666667   
H      0.145385666667     0.279614666667     0.629447666667   
H      0.137907666667     0.265042333333     0.563619666667   
H      0.126693000000     0.254013000000     0.489900000000   
H      0.121286666667     0.245031333333     0.382720666667   
H      0.168509666667     0.325300000000     0.651831333333   
H      0.175653333333     0.007668333333     0.625635000000   
C      0.257071333333     0.128661333333     0.333333333333   
C      0.260620000000     0.129474333333     0.607237666667   
C      0.270017333333     0.134180666667     0.609779333333   
C      0.273272333333     0.136749000000     0.337659666667   
C      0.282455333333     0.141653333333     0.356136333333   
C      0.289517666667     0.146717666667     0.650117000000   
C      0.297754000000     0.150658666667     0.349504666667   
C      0.296913333333     0.148544333333     0.413527666667   
C      0.303811000000     0.151327333333     0.461046000000   
C      0.302979333333     0.149117666667     0.524917666667   
C      0.311202000000     0.153079666667     0.557757666667   
C      0.318232000000     0.158235333333     0.518504000000   
C      0.327606000000     0.163406666667     0.534808000000   
C      0.000916666667     0.163973666667     0.495159000000   
N      0.009647333333     0.168619333333     0.508572333333   
C      0.012064333333     0.173028333333     0.564419333333   
C      0.021565000000     0.177945000000     0.577708000000   
C      0.025872000000     0.179917000000     0.635716000000   
C      0.035213666667     0.184937000000     0.629393333333   
C      0.037946666667     0.186747666667     0.566679000000   
C      0.046956000000     0.191752000000     0.544325666667   
C      0.054208333333     0.197496000000     0.579801666667   
C      0.062189000000     0.201355333333     0.543947000000   
C      0.060949333333     0.198525333333     0.481431666667   
C      0.067689000000     0.201131333333     0.432984000000   
C      0.076666333333     0.204735666667     0.443071000000   
C      0.081591333333     0.206670333333     0.385284333333   
C      0.076171666667     0.204490666667     0.333333333333   
S      0.065434000000     0.200224666667     0.352605000000   
S      0.050058333333     0.191147333333     0.467834666667   
S      0.029022666667     0.182287000000     0.516545666667   
C      0.005919333333     0.172832666667     0.607416000000   
C      0.330306000000     0.167979666667     0.592349000000   
S      0.314688666667     0.158244333333     0.442463000000   
S      0.286026666667     0.141763333333     0.432344666667   
S      0.264731000000     0.133386333333     0.391186000000   
H      0.256791666667     0.126881333333     0.564129000000   
H      0.274164000000     0.135544666667     0.568197000000   
H      0.288897666667     0.147665000000     0.599817333333   
H      0.303988333333     0.154864000000     0.659588000000   
H      0.296750333333     0.144824333333     0.547930000000   
H      0.311870666667     0.152094666667     0.607934000000   
H      0.332769666667     0.160543000000     0.449832000000   
H      0.022519666667     0.177801000000     0.347741000000   
H      0.039685333333     0.187039333333     0.336220666667   
H      0.053877333333     0.198974666667     0.629447666667   
H      0.068525000000     0.206058666667     0.563619666667   
H      0.079636333333     0.205906000000     0.489900000000   
H      0.088668000000     0.209480666667     0.382720666667   
H      0.007957000000     0.176448666667     0.651831333333   
H      0.325511666667     0.167908666667     0.625635000000   
C      0.119970333333     0.224076000000     0.999998333333   
O      0.127737333333     0.225439000000     0.999997000000   
C      0.112945000000     0.214966666667     0.999999333333   
C      0.114304666667     0.208252000000     0.666666666667   
N      0.122999000000     0.209822333333     0.666666666667   
C      0.103962666667     0.213349666667     0.666667666667   
O      0.097649333333     0.205498333333     0.666668333333   
C      0.101809000000     0.220355333333     0.666668666667   
C      0.093543000000     0.218664666667     0.666668333333   
N      0.086707000000     0.209731666667     0.666666666667   
C      0.109172000000     0.229392000000     0.666668000000   
O      0.107460666667     0.235450333333     0.666669000000   
C      0.118299333333     0.231415000000     0.999999666667   
C      0.124790333333     0.239658666667     0.999999333333   
N      0.123490666667     0.246977000000     0.666666666667   
H      0.108926666667     0.201715666667     0.666667000000   
H      0.091802333333     0.223682666667     0.666669333333   
H      0.131351666667     0.240836000000     0.999999000000   
C      0.213363000000     0.109257333333     0.999998333333   
O      0.205596000000     0.107894333333     0.999997000000   
C      0.220388333333     0.118366666667     0.999999333333   
C      0.219028666667     0.125081333333     0.666666666667   
N      0.210334333333     0.123511000000     0.666666666667   
C      0.229370666667     0.119983666667     0.666667666667   
O      0.235684000000     0.127835000000     0.666668333333   
C      0.231524333333     0.112978000000     0.666668666667   
C      0.239790333333     0.114668666667     0.666668333333   
N      0.246626333333     0.123601666667     0.666666666667   
C      0.224161333333     0.103941333333     0.666668000000   
O      0.225872666667     0.097883000000     0.666669000000   
C      0.215034000000     0.101918333333     0.999999666667   
C      0.208543000000     0.093674666667     0.999999333333   
N      0.209842666667     0.086356333333     0.666666666667   
H      0.224406666667     0.131617666667     0.666667000000   
H      0.241531000000     0.109650666667     0.666669333333   
H      0.201981666667     0.092497333333     0.999999000000   
C      0.205031333333     0.128752000000     0.666666666667   
C      0.204200000000     0.131465000000     0.940571000000   
C      0.199438333333     0.136108666667     0.943112666667   
C      0.196848000000     0.136783000000     0.670993000000   
C      0.191888666667     0.141016666667     0.689469666667   
C      0.186778000000     0.142986000000     0.983450333333   
C      0.182788666667     0.147238333333     0.682838000000   
C      0.184913000000     0.148509000000     0.746861000000   
C      0.182091333333     0.152585666667     0.794379333333   
C      0.184311000000     0.153959666667     0.858251000000   
C      0.180300666667     0.158178000000     0.891091000000   
C      0.175098666667     0.160024333333     0.851837333333   
C      0.169870666667     0.164181333333     0.868141333333   
C      0.169272333333     0.170212333333     0.828492333333   
N      0.164574333333     0.174254333333     0.841905666667   
C      0.160141666667     0.172264333333     0.897752666667   
C      0.155168666667     0.176801000000     0.911041333333   
C      0.153171666667     0.179113000000     0.969049333333   
C      0.148095333333     0.183389333333     0.962726666667   
C      0.146267333333     0.184299666667     0.900012333333   
C      0.141208000000     0.188261000000     0.877659000000   
C      0.135415333333     0.189742000000     0.913135000000   
C      0.131509000000     0.193822000000     0.877280333333   
C      0.134352666667     0.195409000000     0.814765000000   
C      0.131709000000     0.199505000000     0.766317333333   
C      0.128054333333     0.204829000000     0.776404333333   
C      0.126092000000     0.207791333333     0.718617666667   
C      0.128302000000     0.204581333333     0.666666666667   
S      0.132628666667     0.198169333333     0.685938333333   
S      0.141800666667     0.191942666667     0.801168000000   
S      0.150780666667     0.179881666667     0.849879000000   
C      0.160365333333     0.166359000000     0.940749333333   
C      0.165272333333     0.162309000000     0.925682333333   
S      0.175105666667     0.156497666667     0.775796333333   
S      0.191762000000     0.144452333333     0.765678000000   
S      0.200258666667     0.131651666667     0.724519333333   
H      0.206817666667     0.130246666667     0.897462333333   
H      0.198051666667     0.138867000000     0.901530333333   
H      0.185830666667     0.141427000000     0.933150666667   
H      0.178543333333     0.149240666667     0.992921333333   
H      0.188644333333     0.152050333333     0.881263333333   
H      0.181285333333     0.159822000000     0.941267333333   
H      0.172719333333     0.172158000000     0.783165333333   
H      0.155308333333     0.177891666667     0.681074333333   
H      0.145967000000     0.185735000000     0.669554000000   
H      0.133933666667     0.187941333333     0.962781000000   
H      0.126764000000     0.195430000000     0.896953000000   
H      0.126867333333     0.206612000000     0.823233333333   
H      0.123242000000     0.212019000000     0.716054000000   
H      0.156730000000     0.164782000000     0.985164666667   
H      0.165365000000     0.157620333333     0.958968333333   
C      0.204427333333     0.075784333333     0.666666666667   
C      0.201710000000     0.072258000000     0.940571000000   
C      0.197074333333     0.062908000000     0.943112666667   
C      0.196409666667     0.059665333333     0.670993000000   
C      0.192186333333     0.050527666667     0.689469666667   
C      0.190234000000     0.043494000000     0.983450333333   
C      0.185987333333     0.035300666667     0.682838000000   