%BLOCK LATTICE_CART
ang    # angstrom units
  37.812100000000    0.000000000000     0.000000000000   
 -18.858004990973    33.117987593609    0.000000000000   
  0.000000000000     0.000000000000     7.000000000000   
%ENDBLOCK LATTICE_CART

%BLOCK POSITIONS_FRAC
C      0.124769333333     0.225070333333     0.333331666667   
O      0.136744666667     0.227164666667     0.333330333333   
C      0.113967000000     0.211074666667     0.333332666667   
C      0.116089000000     0.200758666667     0.000000000000   
N      0.129494000000     0.203171333333     0.000000000000   
C      0.100118000000     0.208590666667     0.000001000000   
O      0.090408666667     0.196528000000     0.000001666667   
C      0.096769666667     0.219354000000     0.000002000000   
C      0.084026000000     0.216756666667     0.000001666667   
N      0.073515000000     0.203032000000     0.000000000000   
C      0.108093333333     0.233237666667     0.000001333333   
O      0.105431000000     0.242545666667     0.000002333333   
C      0.122164000000     0.236345666667     0.333333000000   
C      0.132145666667     0.249011666667     0.333332666667   
N      0.130113666667     0.260255000000     0.000000000000   
H      0.107818333333     0.190716333333     0.000000333333   
H      0.081322333333     0.224466000000     0.000002666667   
H      0.142262000000     0.250820000000     0.333332333333   
C      0.208564000000     0.108263000000     0.333331666667   
O      0.196588666667     0.106168666667     0.333330333333   
C      0.219366333333     0.122258666667     0.333332666667   
C      0.217244333333     0.132574666667     0.000000000000   
N      0.203839333333     0.130162000000     0.000000000000   
C      0.233215333333     0.124742666667     0.000001000000   
O      0.242924666667     0.136805333333     0.000001666667   
C      0.236563666667     0.113979333333     0.000002000000   
C      0.249307333333     0.116576666667     0.000001666667   
N      0.259818333333     0.130301333333     0.000000000000   
C      0.225240000000     0.100095666667     0.000001333333   
O      0.227902333333     0.090787666667     0.000002333333   
C      0.211169333333     0.096987666667     0.333333000000   
C      0.201187666667     0.084321666667     0.333332666667   
N      0.203219666667     0.073078333333     0.000000000000   
H      0.225515000000     0.142617000000     0.000000333333   
H      0.252011000000     0.108867333333     0.000002666667   
H      0.191071333333     0.082513333333     0.333332333333   
C      0.137693333333     0.195119333333     0.000000000000   
N      0.140456666667     0.192404666667     0.058859000000   
C      0.147426333333     0.185560333333     0.060935666667   
C      0.151639666667     0.181423333333     0.007153333333   
C      0.159243666667     0.173956333333     0.008842333333   
C      0.163057000000     0.170211000000     0.065541000000   
C      0.170275666667     0.163122333333     0.065539333333   
C      0.174089666667     0.159377000000     0.008840666667   
C      0.181693666667     0.151909666667     0.007154000000   
C      0.185907000000     0.147773000000     0.060937000000   
N      0.192876666667     0.140928666667     0.058859333333   
C      0.195640000000     0.138214000000     0.000000000000   
C      0.191585000000     0.142195000000     0.279269000000   
N      0.184628666667     0.149026333333     0.281651000000   
C      0.170264333333     0.163133333333     0.285507666667   
C      0.163069333333     0.170199333333     0.285509666667   
N      0.148704666667     0.184306666667     0.281650666667   
C      0.141748000000     0.191138000000     0.279269333333   
H      0.149469333333     0.183553333333     0.108909000000   
H      0.160557666667     0.172665666667     0.111799000000   
H      0.172775333333     0.160667666667     0.111796666667   
H      0.183864000000     0.149780000000     0.108910666667   
H      0.193772333333     0.140046666667     0.231807000000   
H      0.172867333333     0.160577333333     0.239580666667   
H      0.160466333333     0.172755333333     0.239583666667   
H      0.139560666667     0.193286666667     0.231807666667   
C      0.138145333333     0.276359000000     0.000000000000   
N      0.140852666667     0.281787000000     0.058859000000   
C      0.147679666667     0.295475666667     0.060935666667   
C      0.151806000000     0.303750333333     0.007153333333   
C      0.159254333333     0.318684666667     0.008842333333   
C      0.162990000000     0.326174666667     0.065541000000   
C      0.170060666667     0.007019333333     0.065539333333   
C      0.173796333333     0.014510000000     0.008840666667   
C      0.181244666667     0.029444333333     0.007154000000   
C      0.185371000000     0.037718666667     0.060937000000   
N      0.192197666667     0.051407333333     0.058859333333   
C      0.194905333333     0.056835666667     0.000000000000   
C      0.190934333333     0.048872333333     0.279269000000   
N      0.184120666667     0.035210000000     0.281651000000   
C      0.170049666667     0.006996666667     0.285507666667   
C      0.163001666667     0.326198333333     0.285509666667   
N      0.148930333333     0.297984666667     0.281650666667   
C      0.142116333333     0.284322000000     0.279269333333   
H      0.149681666667     0.299489000000     0.108909000000   
H      0.160541666667     0.321265666667     0.111799000000   
H      0.172509000000     0.011928000000     0.111796666667   
H      0.183369000000     0.033705666667     0.108910666667   
H      0.193077666667     0.053169000000     0.231807000000   
H      0.172599000000     0.012108666667     0.239580666667   
H      0.160452000000     0.321086000000     0.239583666667   
H      0.139973000000     0.280025333333     0.231807666667   
C      0.057284000000     0.194980000000     0.000000000000   
N      0.051813000000     0.192266333333     0.058859000000   
C      0.038016666667     0.185422000000     0.060935666667   
C      0.029677000000     0.181284333333     0.007153333333   
C      0.014624666667     0.173817000000     0.008842333333   
C      0.007075666667     0.170072000000     0.065541000000   
C      0.326119333333     0.162983333333     0.065539333333   
C      0.318569666667     0.159237666667     0.008840666667   
C      0.303517666667     0.151770666667     0.007154000000   
C      0.295178000000     0.147633000000     0.060937000000   
N      0.281381666667     0.140788666667     0.058859333333   
C      0.275910666667     0.138075000000     0.000000000000   
C      0.283936333333     0.142057000000     0.279269000000   
N      0.297706666667     0.148888333333     0.281651000000   
C      0.326142000000     0.162994666667     0.285507666667   
C      0.007051666667     0.170060333333     0.285509666667   
N      0.035488000000     0.184166666667     0.281650666667   
C      0.049258000000     0.190998000000     0.279269333333   
H      0.033971666667     0.183415666667     0.108909000000   
H      0.012023333333     0.172526666667     0.111799000000   
H      0.321172000000     0.160528666667     0.111796666667   
H      0.299222666667     0.149639333333     0.108910666667   
H      0.279606000000     0.139909333333     0.231807000000   
H      0.320989666667     0.160438333333     0.239580666667   
H      0.012204333333     0.172616333333     0.239583666667   
H      0.053588666667     0.193146000000     0.231807666667   
C      0.124769333333     0.225070333333     0.666665000000   
O      0.136744666667     0.227164666667     0.666663666667   
C      0.113967000000     0.211074666667     0.666666000000   
C      0.116089000000     0.200758666667     0.333333333333   
N      0.129494000000     0.203171333333     0.333333333333   
C      0.100118000000     0.208590666667     0.333334333333   
O      0.090408666667     0.196528000000     0.333335000000   
C      0.096769666667     0.219354000000     0.333335333333   
C      0.084026000000     0.216756666667     0.333335000000   
N      0.073515000000     0.203032000000     0.333333333333   
C      0.108093333333     0.233237666667     0.333334666667   
O      0.105431000000     0.242545666667     0.333335666667   
C      0.122164000000     0.236345666667     0.666666333333   
C      0.132145666667     0.249011666667     0.666666000000   
N      0.130113666667     0.260255000000     0.333333333333   
H      0.107818333333     0.190716333333     0.333333666667   
H      0.081322333333     0.224466000000     0.333336000000   
H      0.142262000000     0.250820000000     0.666665666667   
C      0.208564000000     0.108263000000     0.666665000000   
O      0.196588666667     0.106168666667     0.666663666667   
C      0.219366333333     0.122258666667     0.666666000000   
C      0.217244333333     0.132574666667     0.333333333333   
N      0.203839333333     0.130162000000     0.333333333333   
C      0.233215333333     0.124742666667     0.333334333333   
O      0.242924666667     0.136805333333     0.333335000000   
C      0.236563666667     0.113979333333     0.333335333333   
C      0.249307333333     0.116576666667     0.333335000000   
N      0.259818333333     0.130301333333     0.333333333333   
C      0.225240000000     0.100095666667     0.333334666667   
O      0.227902333333     0.090787666667     0.333335666667   
C      0.211169333333     0.096987666667     0.666666333333   
C      0.201187666667     0.084321666667     0.666666000000   
N      0.203219666667     0.073078333333     0.333333333333   
H      0.225515000000     0.142617000000     0.333333666667   
H      0.252011000000     0.108867333333     0.333336000000   
H      0.191071333333     0.082513333333     0.666665666667   
C      0.137693333333     0.195119333333     0.333333333333   
N      0.140456666667     0.192404666667     0.392192333333   
C      0.147426333333     0.185560333333     0.394269000000   
C      0.151639666667     0.181423333333     0.340486666667   
C      0.159243666667     0.173956333333     0.342175666667   
C      0.163057000000     0.170211000000     0.398874333333   
C      0.170275666667     0.163122333333     0.398872666667   
C      0.174089666667     0.159377000000     0.342174000000   
C      0.181693666667     0.151909666667     0.340487333333   
C      0.185907000000     0.147773000000     0.394270333333   
N      0.192876666667     0.140928666667     0.392192666667   
C      0.195640000000     0.138214000000     0.333333333333   
C      0.191585000000     0.142195000000     0.612602333333   
N      0.184628666667     0.149026333333     0.614984333333   
C      0.170264333333     0.163133333333     0.618841000000   
C      0.163069333333     0.170199333333     0.618843000000   
N      0.148704666667     0.184306666667     0.614984000000   
C      0.141748000000     0.191138000000     0.612602666667   
H      0.149469333333     0.183553333333     0.442242333333   
H      0.160557666667     0.172665666667     0.445132333333   
H      0.172775333333     0.160667666667     0.445130000000   
H      0.183864000000     0.149780000000     0.442244000000   
H      0.193772333333     0.140046666667     0.565140333333   
H      0.172867333333     0.160577333333     0.572914000000   
H      0.160466333333     0.172755333333     0.572917000000   
H      0.139560666667     0.193286666667     0.565141000000   
C      0.138145333333     0.276359000000     0.333333333333   
N      0.140852666667     0.281787000000     0.392192333333   
C      0.147679666667     0.295475666667     0.394269000000   
C      0.151806000000     0.303750333333     0.340486666667   
C      0.159254333333     0.318684666667     0.342175666667   
C      0.162990000000     0.326174666667     0.398874333333   
C      0.170060666667     0.007019333333     0.398872666667   
C      0.173796333333     0.014510000000     0.342174000000   
C      0.181244666667     0.029444333333     0.340487333333   
C      0.185371000000     0.037718666667     0.394270333333   
N      0.192197666667     0.051407333333     0.392192666667   
C      0.194905333333     0.056835666667     0.333333333333   
C      0.190934333333     0.048872333333     0.612602333333   
N      0.184120666667     0.035210000000     0.614984333333   
C      0.170049666667     0.006996666667     0.618841000000   
C      0.163001666667     0.326198333333     0.618843000000   
N      0.148930333333     0.297984666667     0.614984000000   
C      0.142116333333     0.284322000000     0.612602666667   
H      0.149681666667     0.299489000000     0.442242333333   
H      0.160541666667     0.321265666667     0.445132333333   
H      0.172509000000     0.011928000000     0.445130000000   
H      0.183369000000     0.033705666667     0.442244000000   
H      0.193077666667     0.053169000000     0.565140333333   
H      0.172599000000     0.012108666667     0.572914000000   
H      0.160452000000     0.321086000000     0.572917000000   
H      0.139973000000     0.280025333333     0.565141000000   
C      0.057284000000     0.194980000000     0.333333333333   
N      0.051813000000     0.192266333333     0.392192333333   
C      0.038016666667     0.185422000000     0.394269000000   
C      0.029677000000     0.181284333333     0.340486666667   
C      0.014624666667     0.173817000000     0.342175666667   
C      0.007075666667     0.170072000000     0.398874333333   
C      0.326119333333     0.162983333333     0.398872666667   
C      0.318569666667     0.159237666667     0.342174000000   
C      0.303517666667     0.151770666667     0.340487333333   
C      0.295178000000     0.147633000000     0.394270333333   
N      0.281381666667     0.140788666667     0.392192666667   
C      0.275910666667     0.138075000000     0.333333333333   
C      0.283936333333     0.142057000000     0.612602333333   
N      0.297706666667     0.148888333333     0.614984333333   
C      0.326142000000     0.162994666667     0.618841000000   
C      0.007051666667     0.170060333333     0.618843000000   
N      0.035488000000     0.184166666667     0.614984000000   
C      0.049258000000     0.190998000000     0.612602666667   
H      0.033971666667     0.183415666667     0.442242333333   
H      0.012023333333     0.172526666667     0.445132333333   
H      0.321172000000     0.160528666667     0.445130000000   
H      0.299222666667     0.149639333333     0.442244000000   
H      0.279606000000     0.139909333333     0.565140333333   
H      0.320989666667     0.160438333333     0.572914000000   
H      0.012204333333     0.172616333333     0.572917000000   
H      0.053588666667     0.193146000000     0.565141000000   
C      0.124769333333     0.225070333333     0.999998333333   
O      0.136744666667     0.227164666667     0.999997000000   
C      0.113967000000     0.211074666667     0.999999333333   
C      0.116089000000     0.200758666667     0.666666666667   
N      0.129494000000     0.203171333333     0.666666666667   
C      0.100118000000     0.208590666667     0.666667666667   
O      0.090408666667     0.196528000000     0.666668333333   
C      0.096769666667     0.219354000000     0.666668666667   
C      0.084026000000     0.216756666667     0.666668333333   
N      0.073515000000     0.203032000000     0.666666666667   
C      0.108093333333     0.233237666667     0.666668000000   
O      0.105431000000     0.242545666667     0.666669000000   
C      0.122164000000     0.236345666667     0.999999666667   
C      0.132145666667     0.249011666667     0.999999333333   
N      0.130113666667     0.260255000000     0.666666666667   
H      0.107818333333     0.190716333333     0.666667000000   
H      0.081322333333     0.224466000000     0.666669333333   
H      0.142262000000     0.250820000000     0.999999000000   
C      0.208564000000     0.108263000000     0.999998333333   
O      0.196588666667     0.106168666667     0.999997000000   
C      0.219366333333     0.122258666667     0.999999333333   
C      0.217244333333     0.132574666667     0.666666666667   
N      0.203839333333     0.130162000000     0.666666666667   
C      0.233215333333     0.124742666667     0.666667666667   
O      0.242924666667     0.136805333333     0.666668333333   
C      0.236563666667     0.113979333333     0.666668666667   
C      0.249307333333     0.116576666667     0.666668333333   
N      0.259818333333     0.130301333333     0.666666666667   
C      0.225240000000     0.100095666667     0.666668000000   
O      0.227902333333     0.090787666667     0.666669000000   
C      0.211169333333     0.096987666667     0.999999666667   
C      0.201187666667     0.084321666667     0.999999333333   
N      0.203219666667     0.073078333333     0.666666666667   
H      0.225515000000     0.142617000000     0.666667000000   
H      0.252011000000     0.108867333333     0.666669333333   
H      0.191071333333     0.082513333333     0.999999000000   
C      0.137693333333     0.195119333333     0.666666666667   
N      0.140456666667     0.192404666667     0.725525666667   
C      0.147426333333     0.185560333333     0.727602333333   
C      0.151639666667     0.181423333333     0.673820000000   
C      0.159243666667     0.173956333333     0.675509000000   
C      0.163057000000     0.170211000000     0.732207666667   
C      0.170275666667     0.163122333333     0.732206000000   
C      0.174089666667     0.159377000000     0.675507333333   
C      0.181693666667     0.151909666667     0.673820666667   
C      0.185907000000     0.147773000000     0.727603666667   
N      0.192876666667     0.140928666667     0.725526000000   
C      0.195640000000     0.138214000000     0.666666666667   
C      0.191585000000     0.142195000000     0.945935666667   
N      0.184628666667     0.149026333333     0.948317666667   
C      0.170264333333     0.163133333333     0.952174333333   
C      0.163069333333     0.170199333333     0.952176333333   
N      0.148704666667     0.184306666667     0.948317333333   
C      0.141748000000     0.191138000000     0.945936000000   
H      0.149469333333     0.183553333333     0.775575666667   
H      0.160557666667     0.172665666667     0.778465666667   
H      0.172775333333     0.160667666667     0.778463333333   
H      0.183864000000     0.149780000000     0.775577333333   
H      0.193772333333     0.140046666667     0.898473666667   
H      0.172867333333     0.160577333333     0.906247333333   
H      0.160466333333     0.172755333333     0.906250333333   
H      0.139560666667     0.193286666667     0.898474333333   
C      0.138145333333     0.276359000000     0.666666666667   
N      0.140852666667     0.281787000000     0.725525666667   
C      0.147679666667     0.295475666667     0.727602333333   
C      0.151806000000     0.303750333333     0.673820000000   
C      0.159254333333     0.318684666667     0.675509000000   
C      0.162990000000     0.326174666667     0.732207666667   
C      0.170060666667     0.007019333333     0.732206000000   
C      0.173796333333     0.014510000000     0.675507333333   
C      0.181244666667     0.029444333333     0.673820666667   
C      0.185371000000     0.037718666667     0.727603666667   
N      0.192197666667     0.051407333333     0.725526000000   
C      0.194905333333     0.056835666667     0.666666666667   
C      0.190934333333     0.048872333333     0.945935666667   
N      0.184120666667     0.035210000000     0.948317666667   
C      0.170049666667     0.006996666667     0.952174333333   
C      0.163001666667     0.326198333333     0.952176333333   
N      0.148930333333     0.297984666667     0.948317333333   
C      0.142116333333     0.284322000000     0.945936000000   
H      0.149681666667     0.299489000000     0.775575666667   
H      0.160541666667     0.321265666667     0.778465666667   
H      0.172509000000     0.011928000000     0.778463333333   
H      0.183369000000     0.033705666667     0.775577333333   
H      0.193077666667     0.053169000000     0.898473666667   
H      0.172599000000     0.012108666667     0.906247333333   
H      0.160452000000     0.321086000000     0.906250333333   
H      0.139973000000     0.280025333333     0.898474333333   
C      0.057284000000     0.194980000000     0.666666666667   
N      0.051813000000     0.192266333333     0.725525666667   
C      0.038016666667     0.185422000000     0.727602333333   
C      0.029677000000     0.181284333333     0.673820000000   
C      0.014624666667     0.173817000000     0.675509000000   
C      0.007075666667     0.170072000000     0.732207666667   
C      0.326119333333     0.162983333333     0.732206000000   
C      0.318569666667     0.159237666667     0.675507333333   
C      0.303517666667     0.151770666667     0.673820666667   
C      0.295178000000     0.147633000000     0.727603666667   
N      0.281381666667     0.140788666667     0.725526000000   
C      0.275910666667     0.138075000000     0.666666666667   
C      0.283936333333     0.142057000000     0.945935666667   
N      0.297706666667     0.148888333333     0.948317666667   
C      0.326142000000     0.162994666667     0.952174333333   
C      0.007051666667     0.170060333333     0.952176333333   
N      0.035488000000     0.184166666667     0.948317333333   
C      0.049258000000     0.190998000000     0.945936000000   
H      0.033971666667     0.183415666667     0.775575666667   
H      0.012023333333     0.172526666667     0.778465666667   
H      0.321172000000     0.160528666667     0.778463333333   
H      0.299222666667     0.149639333333     0.775577333333   
H      0.279606000000     0.139909333333     0.898473666667   
H      0.320989666667     0.160438333333     0.906247333333   
H      0.012204333333     0.172616333333     0.906250333333   
H      0.053588666667     0.193146000000     0.898474333333   
C      0.124769333333     0.558403666667     0.333331666667   
O      0.136744666667     0.560498000000     0.333330333333   
C      0.113967000000     0.544408000000     0.333332666667   
C      0.116089000000     0.534092000000     0.000000000000   
N      0.129494000000     0.536504666667     0.000000000000   
C      0.100118000000     0.541924000000     0.000001000000   
O      0.090408666667     0.529861333333     0.000001666667   
C      0.096769666667     0.552687333333     0.000002000000   
C      0.084026000000     0.550090000000     0.000001666667   
N      0.073515000000     0.536365333333     0.000000000000   
C      0.108093333333     0.566571000000     0.000001333333   
O      0.105431000000     0.575879000000     0.000002333333   
C      0.122164000000     0.569679000000     0.333333000000   
C      0.132145666667     0.582345000000     0.333332666667   
N      0.130113666667     0.593588333333     0.000000000000   
H      0.107818333333     0.524049666667     0.000000333333   
H      0.081322333333     0.557799333333     0.000002666667   
H      0.142262000000     0.584153333333     0.333332333333   
C      0.208564000000     0.441596333333     0.333331666667   
O      0.196588666667     0.439502000000     0.333330333333   
C      0.219366333333     0.455592000000     0.333332666667   
C      0.217244333333     0.465908000000     0.000000000000   
N      0.203839333333     0.463495333333     0.000000000000   
C      0.233215333333     0.458076000000     0.000001000000   
O      0.242924666667     0.470138666667     0.000001666667   
C      0.236563666667     0.447312666667     0.000002000000   
C      0.249307333333     0.449910000000     0.000001666667   
N      0.259818333333     0.463634666667     0.000000000000   
C      0.225240000000     0.433429000000     0.000001333333   
O      0.227902333333     0.424121000000     0.000002333333   
C      0.211169333333     0.430321000000     0.333333000000   
C      0.201187666667     0.417655000000     0.333332666667   
N      0.203219666667     0.406411666667     0.000000000000   
H      0.225515000000     0.475950333333     0.000000333333   
H      0.252011000000     0.442200666667     0.000002666667   
H      0.191071333333     0.415846666667     0.333332333333   
C      0.137693333333     0.528452666667     0.000000000000   
N      0.140456666667     0.525738000000     0.058859000000   
C      0.147426333333     0.518893666667     0.060935666667   
C      0.151639666667     0.514756666667     0.007153333333   
C      0.159243666667     0.507289666667     0.008842333333   
C      0.163057000000     0.503544333333     0.065541000000   
C      0.170275666667     0.496455666667     0.065539333333   
C      0.174089666667     0.492710333333     0.008840666667   
C      0.181693666667     0.485243000000     0.007154000000   
C      0.185907000000     0.481106333333     0.060937000000   
N      0.192876666667     0.474262000000     0.058859333333   
C      0.195640000000     0.471547333333     0.000000000000   
C      0.191585000000     0.475528333333     0.279269000000   
N      0.184628666667     0.482359666667     0.281651000000   
C      0.170264333333     0.496466666667     0.285507666667   
C      0.163069333333     0.503532666667     0.285509666667   
N      0.148704666667     0.517640000000     0.281650666667   
C      0.141748000000     0.524471333333     0.279269333333   
H      0.149469333333     0.516886666667     0.108909000000   
H      0.160557666667     0.505999000000     0.111799000000   
H      0.172775333333     0.494001000000     0.111796666667   
H      0.183864000000     0.483113333333     0.108910666667   
H      0.193772333333     0.473380000000     0.231807000000   
H      0.172867333333     0.493910666667     0.239580666667   
H      0.160466333333     0.506088666667     0.239583666667   
H      0.139560666667     0.526620000000     0.231807666667   
C      0.138145333333     0.609692333333     0.000000000000   
N      0.140852666667     0.615120333333     0.058859000000   
C      0.147679666667     0.628809000000     0.060935666667   
C      0.151806000000     0.637083666667     0.007153333333   
C      0.159254333333     0.652018000000     0.008842333333   
C      0.162990000000     0.659508000000     0.065541000000   
C      0.170060666667     0.340352666667     0.065539333333   
C      0.173796333333     0.347843333333     0.008840666667   
C      0.181244666667     0.362777666667     0.007154000000   
C      0.185371000000     0.371052000000     0.060937000000   
N      0.192197666667     0.384740666667     0.058859333333   
C      0.194905333333     0.390169000000     0.000000000000   
C      0.190934333333     0.382205666667     0.279269000000   
N      0.184120666667     0.368543333333     0.281651000000   
C      0.170049666667     0.340330000000     0.285507666667   
C      0.163001666667     0.659531666667     0.285509666667   
N      0.148930333333     0.631318000000     0.281650666667   
C      0.142116333333     0.617655333333     0.279269333333   
H      0.149681666667     0.632822333333     0.108909000000   
H      0.160541666667     0.654599000000     0.111799000000   
H      0.172509000000     0.345261333333     0.111796666667   
H      0.183369000000     0.367039000000     0.108910666667   
H      0.193077666667     0.386502333333     0.231807000000   
H      0.172599000000     0.345442000000     0.239580666667   
H      0.160452000000     0.654419333333     0.239583666667   
H      0.139973000000     0.613358666667     0.231807666667   
C      0.057284000000     0.528313333333     0.000000000000   
N      0.051813000000     0.525599666667     0.058859000000   
C      0.038016666667     0.518755333333     0.060935666667   
C      0.029677000000     0.514617666667     0.007153333333   
C      0.014624666667     0.507150333333     0.008842333333   
C      0.007075666667     0.503405333333     0.065541000000   
C      0.326119333333     0.496316666667     0.065539333333   
C      0.318569666667     0.492571000000     0.008840666667   
C      0.303517666667     0.485104000000     0.007154000000   
C      0.295178000000     0.480966333333     0.060937000000   
N      0.281381666667     0.474122000000     0.058859333333   
C      0.275910666667     0.471408333333     0.000000000000   
C      0.283936333333     0.475390333333     0.279269000000   
N      0.297706666667     0.482221666667     0.281651000000   
C      0.326142000000     0.496328000000     0.285507666667   
C      0.007051666667     0.503393666667     0.285509666667   
N      0.035488000000     0.517500000000     0.281650666667   
C      0.049258000000     0.524331333333     0.279269333333   
H      0.033971666667     0.516749000000     0.108909000000   
H      0.012023333333     0.505860000000     0.111799000000   
H      0.321172000000     0.493862000000     0.111796666667   
H      0.299222666667     0.482972666667     0.108910666667   
H      0.279606000000     0.473242666667     0.231807000000   
H      0.320989666667     0.493771666667     0.239580666667   
H      0.012204333333     0.505949666667     0.239583666667   
H      0.053588666667     0.526479333333     0.231807666667   
C      0.124769333333     0.558403666667     0.666665000000   
O      0.136744666667     0.560498000000     0.666663666667   
C      0.113967000000     0.544408000000     0.666666000000   
C      0.116089000000     0.534092000000     0.333333333333   
N      0.129494000000     0.536504666667     0.333333333333   
C      0.100118000000     0.541924000000     0.333334333333   
O      0.090408666667     0.529861333333     0.333335000000   
C      0.096769666667     0.552687333333     0.333335333333   
C      0.084026000000     0.550090000000     0.333335000000   
N      0.073515000000     0.536365333333     0.333333333333   
C      0.108093333333     0.566571000000     0.333334666667   
O      0.105431000000     0.575879000000     0.333335666667   
C      0.122164000000     0.569679000000     0.666666333333   
C      0.132145666667     0.582345000000     0.666666000000   
N      0.130113666667     0.593588333333     0.333333333333   
H      0.107818333333     0.524049666667     0.333333666667   