%BLOCK LATTICE_CART
ang    # angstrom units
  59.738400000000    0.000000000000     0.000000000000   
 -29.821267243794    52.106711412391    0.000000000000   
  0.000000000000     0.000000000000     7.000000000000   
%ENDBLOCK LATTICE_CART

%BLOCK POSITIONS_FRAC
C      0.119761000000     0.224032333333     0.333331666667   
O      0.127344000000     0.225363666667     0.333330333333   
C      0.112901000000     0.215137000000     0.333332666667   
C      0.114227666667     0.208580666667     0.000000000000   
N      0.122716333333     0.210113666667     0.000000000000   
C      0.104131000000     0.213558333333     0.000001000000   
O      0.097966333333     0.205891333333     0.000001666667   
C      0.102029000000     0.220399333333     0.000002000000   
C      0.093958666667     0.218748333333     0.000001666667   
N      0.087283333333     0.210025333333     0.000000000000   
C      0.109218666667     0.229223333333     0.000001333333   
O      0.107548333333     0.235139333333     0.000002333333   
C      0.118130000000     0.231198666667     0.333333000000   
C      0.124468333333     0.239249000000     0.333332666667   
N      0.123200000000     0.246395000000     0.000000000000   
H      0.108976333333     0.202197666667     0.000000333333   
H      0.092259666667     0.223648333333     0.000002666667   
H      0.130874333333     0.240398333333     0.333332333333   
C      0.213572333333     0.109301000000     0.333331666667   
O      0.205989333333     0.107969666667     0.333330333333   
C      0.220432333333     0.118196333333     0.333332666667   
C      0.219105666667     0.124752666667     0.000000000000   
N      0.210617000000     0.123219666667     0.000000000000   
C      0.229202333333     0.119775000000     0.000001000000   
O      0.235367000000     0.127442000000     0.000001666667   
C      0.231304333333     0.112934000000     0.000002000000   
C      0.239374666667     0.114585000000     0.000001666667   
N      0.246050000000     0.123308000000     0.000000000000   
C      0.224114666667     0.104110000000     0.000001333333   
O      0.225785000000     0.098194000000     0.000002333333   
C      0.215203333333     0.102134666667     0.333333000000   
C      0.208865000000     0.094084333333     0.333332666667   
N      0.210133333333     0.086938333333     0.000000000000   
H      0.224357000000     0.131135666667     0.000000333333   
H      0.241073666667     0.109685000000     0.000002666667   
H      0.202459000000     0.092935000000     0.333332333333   
C      0.205440000000     0.128337333333     0.000000000000   
N      0.203428333333     0.130331333333     0.276311666667   
C      0.199029000000     0.134681333333     0.278495000000   
C      0.196613666667     0.137064666667     0.001383666667   
C      0.191823666667     0.141801000000     0.003711666667   
C      0.189162333333     0.144436333333     0.283639333333   
N      0.184760666667     0.148789000000     0.286154666667   
C      0.182903000000     0.150622000000     0.011408333333   
C      0.178128000000     0.155342333333     0.012984666667   
C      0.175707000000     0.157738000000     0.290511666667   
N      0.171319666667     0.162075000000     0.287188333333   
C      0.168956666667     0.164409000000     0.008087000000   
C      0.171100666667     0.162287333333     0.067467666667   
C      0.175659666667     0.157780333333     0.068919000000   
C      0.168737000000     0.164621666667     0.124274666667   
C      0.164248333333     0.169059000000     0.122711666667   
C      0.162075666667     0.171209000000     0.064328666667   
C      0.157525666667     0.175706666667     0.062512333333   
C      0.155225333333     0.177982666667     0.004970666667   
C      0.150448333333     0.182704666667     0.003347333333   
N      0.148415666667     0.184711000000     0.060743333333   
C      0.144009666667     0.189065333333     0.060311000000   
C      0.141511000000     0.191537000000     0.005207333333   
C      0.136717333333     0.196274666667     0.004393666667   
C      0.134135666667     0.198825333333     0.058974666667   
N      0.129733333333     0.203176666667     0.058291666667   
C      0.127893333333     0.204996000000     0.000000000000   
C      0.130368000000     0.202551333333     0.278450666667   
N      0.134759333333     0.198211000000     0.279526333333   
N      0.143559666667     0.189514666667     0.281255000000   
C      0.147959000000     0.185167000000     0.281492333333   
C      0.157813000000     0.175427000000     0.284251000000   
N      0.162203000000     0.171087666667     0.284012333333   
C      0.164399333333     0.168914333333     0.006492000000   
C      0.185555000000     0.147995666667     0.064877000000   
N      0.189949666667     0.143650000000     0.062299333333   
N      0.198742666667     0.134954666667     0.058264666667   
C      0.203132333333     0.130614333333     0.056448333333   
H      0.197542666667     0.136155666667     0.231748333333   
H      0.190418000000     0.143197333333     0.235440666667   
H      0.177265333333     0.156198666667     0.244007666667   
H      0.177235666667     0.156220000000     0.115182333333   
H      0.170366000000     0.163009666667     0.170201000000   
H      0.162458000000     0.170826666667     0.167347000000   
H      0.155733000000     0.177476666667     0.107223666667   
H      0.142606000000     0.190450666667     0.107611666667   
H      0.135481000000     0.197494333333     0.106644666667   
H      0.128923000000     0.203979666667     0.231400333333   
H      0.149365333333     0.183780000000     0.234201666667   
H      0.156474333333     0.176752333333     0.236437333333   
H      0.184288333333     0.149244333333     0.112988666667   
H      0.204717000000     0.129044000000     0.102497333333   
C      0.204845000000     0.076614666667     0.000000000000   
N      0.202854000000     0.072631666667     0.276311666667   
C      0.198511000000     0.063932666667     0.278495000000   
C      0.196131666667     0.059161666667     0.001383666667   
C      0.191403000000     0.049690333333     0.003711666667   
C      0.188772000000     0.044424333333     0.283639333333   
N      0.184426333333     0.035720333333     0.286154666667   
C      0.182596333333     0.032051000000     0.011408333333   
C      0.177883333333     0.022610333333     0.012984666667   
C      0.175491666667     0.017821333333     0.290511666667   
N      0.171161333333     0.009147333333     0.287188333333   
C      0.168831333333     0.004477333333     0.008087000000   
C      0.170949666667     0.008718666667     0.067467666667   
C      0.175449333333     0.017732000000     0.068919000000   
C      0.168619000000     0.004047333333     0.124274666667   
C      0.164188666667     0.328506000000     0.122711666667   
C      0.162042333333     0.324208333333     0.064328666667   
C      0.157552000000     0.315212666667     0.062512333333   
C      0.155279333333     0.310663000000     0.004970666667   
C      0.150565000000     0.301218666667     0.003347333333   
N      0.148562000000     0.297203000000     0.060743333333   
C      0.144214666667     0.288492666667     0.060311000000   
C      0.141747000000     0.283551000000     0.005207333333   
C      0.137017000000     0.274075000000     0.004393666667   
C      0.134470666667     0.268972333333     0.058974666667   
N      0.130126333333     0.260269000000     0.058291666667   
C      0.128309666667     0.256630333333     0.000000000000   
C      0.130750666667     0.261521666667     0.278450666667   
N      0.135083666667     0.270202666667     0.279526333333   
N      0.143766333333     0.287599000000     0.281255000000   
C      0.148106666667     0.296295333333     0.281492333333   
C      0.157831000000     0.315776666667     0.284251000000   
N      0.162163333333     0.324455666667     0.284012333333   
C      0.164333333333     0.328800000000     0.006492000000   
C      0.185218333333     0.037299000000     0.064877000000   
N      0.189557000000     0.045988666667     0.062299333333   
N      0.198238333333     0.063376666667     0.058264666667   
C      0.202571666667     0.072056000000     0.056448333333   
H      0.197039333333     0.060989333333     0.231748333333   
H      0.190008666667     0.046904666667     0.235440666667   
H      0.177028666667     0.020901333333     0.244007666667   
H      0.177007333333     0.020850333333     0.115182333333   
H      0.170228333333     0.007269666667     0.170201000000   
H      0.162424000000     0.324968666667     0.167347000000   
H      0.155784666667     0.311670666667     0.107223666667   
H      0.142831666667     0.285720333333     0.107611666667   
H      0.135799333333     0.271633000000     0.106644666667   
H      0.129324666667     0.258665000000     0.231400333333   
H      0.149491666667     0.299072666667     0.234201666667   
H      0.156508000000     0.313128000000     0.236437333333   
H      0.183971666667     0.034798000000     0.112988666667   
H      0.204139333333     0.075192666667     0.102497333333   
C      0.256248000000     0.128248666667     0.000000000000   
N      0.260251000000     0.130237666667     0.276311666667   
C      0.268993333333     0.134586666667     0.278495000000   
C      0.273788000000     0.136974333333     0.001383666667   
C      0.283306333333     0.141709333333     0.003711666667   
C      0.288599000000     0.144340000000     0.283639333333   
N      0.297346333333     0.148691333333     0.286154666667   
C      0.301034000000     0.150528000000     0.011408333333   
C      0.310521666667     0.155248000000     0.012984666667   
C      0.315334333333     0.157641333333     0.290511666667   
N      0.324052000000     0.161978333333     0.287188333333   
C      0.328745000000     0.164314333333     0.008087000000   
C      0.324482666667     0.162195000000     0.067467666667   
C      0.315424333333     0.157688333333     0.068919000000   
C      0.329177333333     0.164531666667     0.124274666667   
C      0.004763000000     0.168969000000     0.122711666667   
C      0.009082000000     0.171116666667     0.064328666667   
C      0.018122333333     0.175614666667     0.062512333333   
C      0.022695000000     0.177888333333     0.004970666667   
C      0.032186333333     0.182610666667     0.003347333333   
N      0.036222000000     0.184620000000     0.060743333333   
C      0.044975666667     0.188976000000     0.060311000000   
C      0.049942000000     0.191446000000     0.005207333333   
C      0.059465666667     0.196184666667     0.004393666667   
C      0.064593666667     0.198736666667     0.058974666667   
N      0.073340333333     0.203088333333     0.058291666667   
C      0.076997000000     0.204907666667     0.000000000000   
C      0.072081333333     0.202461333333     0.278450666667   
N      0.063357000000     0.198120333333     0.279526333333   
N      0.045873666667     0.189420333333     0.281255000000   
C      0.037134000000     0.185071333333     0.281492333333   
C      0.017556000000     0.175330333333     0.284251000000   
N      0.008833666667     0.170990666667     0.284012333333   
C      0.004467333333     0.168819666667     0.006492000000   
C      0.295759666667     0.147906333333     0.064877000000   
N      0.287026666667     0.143562000000     0.062299333333   
N      0.269552000000     0.134869666667     0.058264666667   
C      0.260829333333     0.130530333333     0.056448333333   
H      0.271951333333     0.136056000000     0.231748333333   
H      0.286106333333     0.143099000000     0.235440666667   
H      0.312239333333     0.156100666667     0.244007666667   
H      0.312290333333     0.156130333333     0.115182333333   
H      0.325938666667     0.162921333333     0.170201000000   
H      0.008317666667     0.170738666667     0.167347000000   
H      0.021682333333     0.177386666667     0.107223666667   
H      0.047762000000     0.190363333333     0.107611666667   
H      0.061919666667     0.197406666667     0.106644666667   
H      0.074952333333     0.203889666667     0.231400333333   
H      0.034343000000     0.183681333333     0.234201666667   
H      0.020217666667     0.176654000000     0.236437333333   
H      0.298273333333     0.149158333333     0.112988666667   
H      0.257677000000     0.128963666667     0.102497333333   
C      0.119761000000     0.224032333333     0.666665000000   
O      0.127344000000     0.225363666667     0.666663666667   
C      0.112901000000     0.215137000000     0.666666000000   
C      0.114227666667     0.208580666667     0.333333333333   
N      0.122716333333     0.210113666667     0.333333333333   
C      0.104131000000     0.213558333333     0.333334333333   
O      0.097966333333     0.205891333333     0.333335000000   
C      0.102029000000     0.220399333333     0.333335333333   
C      0.093958666667     0.218748333333     0.333335000000   
N      0.087283333333     0.210025333333     0.333333333333   
C      0.109218666667     0.229223333333     0.333334666667   
O      0.107548333333     0.235139333333     0.333335666667   
C      0.118130000000     0.231198666667     0.666666333333   
C      0.124468333333     0.239249000000     0.666666000000   
N      0.123200000000     0.246395000000     0.333333333333   
H      0.108976333333     0.202197666667     0.333333666667   
H      0.092259666667     0.223648333333     0.333336000000   
H      0.130874333333     0.240398333333     0.666665666667   
C      0.213572333333     0.109301000000     0.666665000000   
O      0.205989333333     0.107969666667     0.666663666667   
C      0.220432333333     0.118196333333     0.666666000000   
C      0.219105666667     0.124752666667     0.333333333333   
N      0.210617000000     0.123219666667     0.333333333333   
C      0.229202333333     0.119775000000     0.333334333333   
O      0.235367000000     0.127442000000     0.333335000000   
C      0.231304333333     0.112934000000     0.333335333333   
C      0.239374666667     0.114585000000     0.333335000000   
N      0.246050000000     0.123308000000     0.333333333333   
C      0.224114666667     0.104110000000     0.333334666667   
O      0.225785000000     0.098194000000     0.333335666667   
C      0.215203333333     0.102134666667     0.666666333333   
C      0.208865000000     0.094084333333     0.666666000000   
N      0.210133333333     0.086938333333     0.333333333333   
H      0.224357000000     0.131135666667     0.333333666667   
H      0.241073666667     0.109685000000     0.333336000000   
H      0.202459000000     0.092935000000     0.666665666667   
C      0.205440000000     0.128337333333     0.333333333333   
N      0.203428333333     0.130331333333     0.609645000000   
C      0.199029000000     0.134681333333     0.611828333333   
C      0.196613666667     0.137064666667     0.334717000000   
C      0.191823666667     0.141801000000     0.337045000000   
C      0.189162333333     0.144436333333     0.616972666667   
N      0.184760666667     0.148789000000     0.619488000000   
C      0.182903000000     0.150622000000     0.344741666667   
C      0.178128000000     0.155342333333     0.346318000000   
C      0.175707000000     0.157738000000     0.623845000000   
N      0.171319666667     0.162075000000     0.620521666667   
C      0.168956666667     0.164409000000     0.341420333333   
C      0.171100666667     0.162287333333     0.400801000000   
C      0.175659666667     0.157780333333     0.402252333333   
C      0.168737000000     0.164621666667     0.457608000000   
C      0.164248333333     0.169059000000     0.456045000000   
C      0.162075666667     0.171209000000     0.397662000000   
C      0.157525666667     0.175706666667     0.395845666667   
C      0.155225333333     0.177982666667     0.338304000000   
C      0.150448333333     0.182704666667     0.336680666667   
N      0.148415666667     0.184711000000     0.394076666667   
C      0.144009666667     0.189065333333     0.393644333333   
C      0.141511000000     0.191537000000     0.338540666667   
C      0.136717333333     0.196274666667     0.337727000000   
C      0.134135666667     0.198825333333     0.392308000000   
N      0.129733333333     0.203176666667     0.391625000000   
C      0.127893333333     0.204996000000     0.333333333333   
C      0.130368000000     0.202551333333     0.611784000000   
N      0.134759333333     0.198211000000     0.612859666667   
N      0.143559666667     0.189514666667     0.614588333333   
C      0.147959000000     0.185167000000     0.614825666667   
C      0.157813000000     0.175427000000     0.617584333333   
N      0.162203000000     0.171087666667     0.617345666667   
C      0.164399333333     0.168914333333     0.339825333333   
C      0.185555000000     0.147995666667     0.398210333333   
N      0.189949666667     0.143650000000     0.395632666667   
N      0.198742666667     0.134954666667     0.391598000000   
C      0.203132333333     0.130614333333     0.389781666667   
H      0.197542666667     0.136155666667     0.565081666667   
H      0.190418000000     0.143197333333     0.568774000000   
H      0.177265333333     0.156198666667     0.577341000000   
H      0.177235666667     0.156220000000     0.448515666667   
H      0.170366000000     0.163009666667     0.503534333333   
H      0.162458000000     0.170826666667     0.500680333333   
H      0.155733000000     0.177476666667     0.440557000000   
H      0.142606000000     0.190450666667     0.440945000000   
H      0.135481000000     0.197494333333     0.439978000000   
H      0.128923000000     0.203979666667     0.564733666667   
H      0.149365333333     0.183780000000     0.567535000000   
H      0.156474333333     0.176752333333     0.569770666667   
H      0.184288333333     0.149244333333     0.446322000000   
H      0.204717000000     0.129044000000     0.435830666667   
C      0.204845000000     0.076614666667     0.333333333333   
N      0.202854000000     0.072631666667     0.609645000000   
C      0.198511000000     0.063932666667     0.611828333333   
C      0.196131666667     0.059161666667     0.334717000000   
C      0.191403000000     0.049690333333     0.337045000000   
C      0.188772000000     0.044424333333     0.616972666667   
N      0.184426333333     0.035720333333     0.619488000000   
C      0.182596333333     0.032051000000     0.344741666667   
C      0.177883333333     0.022610333333     0.346318000000   
C      0.175491666667     0.017821333333     0.623845000000   
N      0.171161333333     0.009147333333     0.620521666667   
C      0.168831333333     0.004477333333     0.341420333333   
C      0.170949666667     0.008718666667     0.400801000000   
C      0.175449333333     0.017732000000     0.402252333333   
C      0.168619000000     0.004047333333     0.457608000000   
C      0.164188666667     0.328506000000     0.456045000000   
C      0.162042333333     0.324208333333     0.397662000000   
C      0.157552000000     0.315212666667     0.395845666667   
C      0.155279333333     0.310663000000     0.338304000000   
C      0.150565000000     0.301218666667     0.336680666667   
N      0.148562000000     0.297203000000     0.394076666667   
C      0.144214666667     0.288492666667     0.393644333333   
C      0.141747000000     0.283551000000     0.338540666667   
C      0.137017000000     0.274075000000     0.337727000000   
C      0.134470666667     0.268972333333     0.392308000000   
N      0.130126333333     0.260269000000     0.391625000000   
C      0.128309666667     0.256630333333     0.333333333333   
C      0.130750666667     0.261521666667     0.611784000000   
N      0.135083666667     0.270202666667     0.612859666667   
N      0.143766333333     0.287599000000     0.614588333333   
C      0.148106666667     0.296295333333     0.614825666667   
C      0.157831000000     0.315776666667     0.617584333333   
N      0.162163333333     0.324455666667     0.617345666667   
C      0.164333333333     0.328800000000     0.339825333333   
C      0.185218333333     0.037299000000     0.398210333333   
N      0.189557000000     0.045988666667     0.395632666667   
N      0.198238333333     0.063376666667     0.391598000000   
C      0.202571666667     0.072056000000     0.389781666667   
H      0.197039333333     0.060989333333     0.565081666667   
H      0.190008666667     0.046904666667     0.568774000000   
H      0.177028666667     0.020901333333     0.577341000000   
H      0.177007333333     0.020850333333     0.448515666667   
H      0.170228333333     0.007269666667     0.503534333333   
H      0.162424000000     0.324968666667     0.500680333333   
H      0.155784666667     0.311670666667     0.440557000000   
H      0.142831666667     0.285720333333     0.440945000000   
H      0.135799333333     0.271633000000     0.439978000000   
H      0.129324666667     0.258665000000     0.564733666667   
H      0.149491666667     0.299072666667     0.567535000000   
H      0.156508000000     0.313128000000     0.569770666667   
H      0.183971666667     0.034798000000     0.446322000000   
H      0.204139333333     0.075192666667     0.435830666667   
C      0.256248000000     0.128248666667     0.333333333333   
N      0.260251000000     0.130237666667     0.609645000000   
C      0.268993333333     0.134586666667     0.611828333333   
C      0.273788000000     0.136974333333     0.334717000000   
C      0.283306333333     0.141709333333     0.337045000000   
C      0.288599000000     0.144340000000     0.616972666667   
N      0.297346333333     0.148691333333     0.619488000000   
C      0.301034000000     0.150528000000     0.344741666667   
C      0.310521666667     0.155248000000     0.346318000000   
C      0.315334333333     0.157641333333     0.623845000000   
N      0.324052000000     0.161978333333     0.620521666667   
C      0.328745000000     0.164314333333     0.341420333333   
C      0.324482666667     0.162195000000     0.400801000000   
C      0.315424333333     0.157688333333     0.402252333333   
C      0.329177333333     0.164531666667     0.457608000000   
C      0.004763000000     0.168969000000     0.456045000000   
C      0.009082000000     0.171116666667     0.397662000000   
C      0.018122333333     0.175614666667     0.395845666667   
C      0.022695000000     0.177888333333     0.338304000000   
C      0.032186333333     0.182610666667     0.336680666667   
N      0.036222000000     0.184620000000     0.394076666667   
C      0.044975666667     0.188976000000     0.393644333333   
C      0.049942000000     0.191446000000     0.338540666667   
C      0.059465666667     0.196184666667     0.337727000000   
C      0.064593666667     0.198736666667     0.392308000000   
N      0.073340333333     0.203088333333     0.391625000000   
C      0.076997000000     0.204907666667     0.333333333333   
C      0.072081333333     0.202461333333     0.611784000000   
N      0.063357000000     0.198120333333     0.612859666667   
N      0.045873666667     0.189420333333     0.614588333333   
C      0.037134000000     0.185071333333     0.614825666667   
C      0.017556000000     0.175330333333     0.617584333333   
N      0.008833666667     0.170990666667     0.617345666667   
C      0.004467333333     0.168819666667     0.339825333333   
C      0.295759666667     0.147906333333     0.398210333333   
N      0.287026666667     0.143562000000     0.395632666667   
N      0.269552000000     0.134869666667     0.391598000000   
C      0.260829333333     0.130530333333     0.389781666667   
H      0.271951333333     0.136056000000     0.565081666667   
H      0.286106333333     0.143099000000     0.568774000000   
H      0.312239333333     0.156100666667     0.577341000000   
H      0.312290333333     0.156130333333     0.448515666667   
H      0.325938666667     0.162921333333     0.503534333333   
H      0.008317666667     0.170738666667     0.500680333333   
H      0.021682333333     0.177386666667     0.440557000000   
H      0.047762000000     0.190363333333     0.440945000000   
H      0.061919666667     0.197406666667     0.439978000000   
H      0.074952333333     0.203889666667     0.564733666667   
H      0.034343000000     0.183681333333     0.567535000000   
H      0.020217666667     0.176654000000     0.569770666667   
H      0.298273333333     0.149158333333     0.446322000000   
H      0.257677000000     0.128963666667     0.435830666667   
C      0.119761000000     0.224032333333     0.999998333333   
O      0.127344000000     0.225363666667     0.999997000000   
C      0.112901000000     0.215137000000     0.999999333333   
C      0.114227666667     0.208580666667     0.666666666667   
N      0.122716333333     0.210113666667     0.666666666667   
C      0.104131000000     0.213558333333     0.666667666667   
O      0.097966333333     0.205891333333     0.666668333333   
C      0.102029000000     0.220399333333     0.666668666667   
C      0.093958666667     0.218748333333     0.666668333333   
N      0.087283333333     0.210025333333     0.666666666667   
C      0.109218666667     0.229223333333     0.666668000000   
O      0.107548333333     0.235139333333     0.666669000000   
C      0.118130000000     0.231198666667     0.999999666667   
C      0.124468333333     0.239249000000     0.999999333333   
N      0.123200000000     0.246395000000     0.666666666667   
H      0.108976333333     0.202197666667     0.666667000000   
H      0.092259666667     0.223648333333     0.666669333333   
H      0.130874333333     0.240398333333     0.999999000000   
C      0.213572333333     0.109301000000     0.999998333333   
O      0.205989333333     0.107969666667     0.999997000000   
C      0.220432333333     0.118196333333     0.999999333333   
C      0.219105666667     0.124752666667     0.666666666667   
N      0.210617000000     0.123219666667     0.666666666667   
C      0.229202333333     0.119775000000     0.666667666667   
O      0.235367000000     0.127442000000     0.666668333333   
C      0.231304333333     0.112934000000     0.666668666667   
C      0.239374666667     0.114585000000     0.666668333333   
N      0.246050000000     0.123308000000     0.666666666667   
C      0.224114666667     0.104110000000     0.666668000000   
O      0.225785000000     0.098194000000     0.666669000000   
C      0.215203333333     0.102134666667     0.999999666667   
C      0.208865000000     0.094084333333     0.999999333333   
N      0.210133333333     0.086938333333     0.666666666667   
H      0.224357000000     0.131135666667     0.666667000000   
H      0.241073666667     0.109685000000     0.666669333333   
H      0.202459000000     0.092935000000     0.999999000000   
C      0.205440000000     0.128337333333     0.666666666667   
N      0.203428333333     0.130331333333     0.942978333333   
C      0.199029000000     0.134681333333     0.945161666667   
C      0.196613666667     0.137064666667     0.668050333333   
C      0.191823666667     0.141801000000     0.670378333333   
C      0.189162333333     0.144436333333     0.950306000000   
N      0.184760666667     0.148789000000     0.952821333333   
C      0.182903000000     0.150622000000     0.678075000000   
C      0.178128000000     0.155342333333     0.679651333333   
C      0.175707000000     0.157738000000     0.957178333333   
N      0.171319666667     0.162075000000     0.953855000000   
C      0.168956666667     0.164409000000     0.674753666667   
C      0.171100666667     0.162287333333     0.734134333333   
C      0.175659666667     0.157780333333     0.735585666667   
C      0.168737000000     0.164621666667     0.790941333333   
C      0.164248333333     0.169059000000     0.789378333333   
C      0.162075666667     0.171209000000     0.730995333333   
C      0.157525666667     0.175706666667     0.729179000000   
C      0.155225333333     0.177982666667     0.671637333333   
C      0.150448333333     0.182704666667     0.670014000000   
N      0.148415666667     0.184711000000     0.727410000000   
C      0.144009666667     0.189065333333     0.726977666667   
C      0.141511000000     0.191537000000     0.671874000000   
C      0.136717333333     0.196274666667     0.671060333333   
C      0.134135666667     0.198825333333     0.725641333333   
N      0.129733333333     0.203176666667     0.724958333333   
C      0.127893333333     0.204996000000     0.666666666667   
C      0.130368000000     0.202551333333     0.945117333333   
N      0.134759333333     0.198211000000     0.946193000000   
N      0.143559666667     0.189514666667     0.947921666667   
C      0.147959000000     0.185167000000     0.948159000000   
C      0.157813000000     0.175427000000     0.950917666667   
N      0.162203000000     0.171087666667     0.950679000000   
C      0.164399333333     0.168914333333     0.673158666667   
C      0.185555000000     0.147995666667     0.731543666667   
N      0.189949666667     0.143650000000     0.728966000000   
N      0.198742666667     0.134954666667     0.724931333333   
C      0.203132333333     0.130614333333     0.723115000000   
H      0.197542666667     0.136155666667     0.898415000000   
H      0.190418000000     0.143197333333     0.902107333333   
H      0.177265333333     0.156198666667     0.910674333333   
H      0.177235666667     0.156220000000     0.781849000000   
H      0.170366000000     0.163009666667     0.836867666667   
H      0.162458000000     0.170826666667     0.834013666667   
H      0.155733000000     0.177476666667     0.773890333333   
H      0.142606000000     0.190450666667     0.774278333333   
H      0.135481000000     0.197494333333     0.773311333333   
H      0.128923000000     0.203979666667     0.898067000000   
H      0.149365333333     0.183780000000     0.900868333333   
H      0.156474333333     0.176752333333     0.903104000000   
H      0.184288333333     0.149244333333     0.779655333333   
H      0.204717000000     0.129044000000     0.769164000000   