%BLOCK LATTICE_CART
ang    # angstrom units
  37.480000000000    0.000000000000     0.000000000000   
 -18.691955704080    32.830373283238    0.000000000000   
  0.000000000000     0.000000000000     7.000000000000   
%ENDBLOCK LATTICE_CART

%BLOCK POSITIONS_FRAC
C      0.124890000000     0.225095333333     0.333331666667   
O      0.136971333333     0.227208000000     0.333330333333   
C      0.113993000000     0.210977000000     0.333332666667   
C      0.116134666667     0.200570666667     0.000000000000   
N      0.129658000000     0.203004333333     0.000000000000   
C      0.100021333333     0.208471333333     0.000001000000   
O      0.090227000000     0.196302666667     0.000001666667   
C      0.096642666667     0.219329000000     0.000002000000   
C      0.083786333333     0.216708666667     0.000001666667   
N      0.073183000000     0.202864000000     0.000000000000   
C      0.108066000000     0.233334333333     0.000001333333   
O      0.105379333333     0.242723666667     0.000002333333   
C      0.122261000000     0.236469333333     0.333333000000   
C      0.132330333333     0.249246333333     0.333332666667   
N      0.130279666667     0.260588000000     0.000000000000   
H      0.107791000000     0.190440333333     0.000000333333   
H      0.081058333333     0.224485666667     0.000002666667   
H      0.142536333333     0.251070666667     0.333332333333   
C      0.208443333333     0.108238000000     0.333331666667   
O      0.196362000000     0.106125333333     0.333330333333   
C      0.219340333333     0.122356333333     0.333332666667   
C      0.217198666667     0.132762666667     0.000000000000   
N      0.203675333333     0.130329000000     0.000000000000   
C      0.233312000000     0.124862000000     0.000001000000   
O      0.243106333333     0.137030666667     0.000001666667   
C      0.236690666667     0.114004333333     0.000002000000   
C      0.249547000000     0.116624666667     0.000001666667   
N      0.260150333333     0.130469333333     0.000000000000   
C      0.225267333333     0.099999000000     0.000001333333   
O      0.227954000000     0.090609666667     0.000002333333   
C      0.211072333333     0.096864000000     0.333333000000   
C      0.201003000000     0.084087000000     0.333332666667   
N      0.203053666667     0.072745333333     0.000000000000   
H      0.225542333333     0.142893000000     0.000000333333   
H      0.252275000000     0.108847666667     0.000002666667   
H      0.190797000000     0.082262666667     0.333332333333   
S      0.175300000000     0.163739333333     0.194447333333   
C      0.170993666667     0.165298000000     0.274341666667   
N      0.164049666667     0.172267000000     0.278807666667   
C      0.160462666667     0.174530666667     0.004472000000   
C      0.152600333333     0.181738666667     0.003920666667   
C      0.155197000000     0.191925666667     0.292976000000   
N      0.148096000000     0.198744666667     0.290250000000   
C      0.137930666667     0.194881666667     0.000000000000   
C      0.135070666667     0.184659666667     0.043745666667   
N      0.142228000000     0.177904000000     0.046554666667   
C      0.164368666667     0.170196333333     0.058817666667   
S      0.161777000000     0.173525666667     0.138709000000   
N      0.171449333333     0.163352000000     0.054654000000   
C      0.174652666667     0.160695000000     0.328791333333   
C      0.182060000000     0.152975666667     0.329457333333   
C      0.189917333333     0.153259666667     0.048253333333   
N      0.196745000000     0.146172333333     0.051313000000   
C      0.195402666667     0.138451666667     0.000000000000   
C      0.187589666667     0.137942666667     0.281282333333   
N      0.180827333333     0.145110000000     0.278092000000   
H      0.177076000000     0.153019333333     0.205069000000   
H      0.163242666667     0.194977000000     0.257575333333   
H      0.126890000000     0.181504333333     0.078344000000   
H      0.167053333333     0.166287000000     0.164206000000   
H      0.191014666667     0.159340333333     0.090175666667   
H      0.186467000000     0.131724666667     0.239967333333   
S      0.169404666667     0.011372333333     0.194447333333   
C      0.167869000000     0.005567000000     0.274341666667   
N      0.160916666667     0.325114333333     0.278807666667   
C      0.158667666667     0.319320333333     0.004472000000   
C      0.151481666667     0.304388666667     0.003920666667   
C      0.141231000000     0.296839333333     0.292976000000   
N      0.134431000000     0.283047666667     0.290250000000   
C      0.138381333333     0.276833000000     0.000000000000   
C      0.148669333333     0.284156666667     0.043745666667   
N      0.155405666667     0.297942000000     0.046554666667   
C      0.162994333333     0.327486000000     0.058817666667   
S      0.159668333333     0.321617666667     0.138709000000   
N      0.169820333333     0.007950333333     0.054654000000   
C      0.172467000000     0.013755666667     0.328791333333   
C      0.180170000000     0.028745000000     0.329457333333   
C      0.179830000000     0.036231333333     0.048253333333   
N      0.186902000000     0.050020000000     0.051313000000   
C      0.194666666667     0.056360000000     0.000000000000   
C      0.195232000000     0.049141000000     0.281282333333   
N      0.188079333333     0.035337666667     0.278092000000   
H      0.180160666667     0.023774333333     0.205069000000   
H      0.138110333333     0.301764000000     0.257575333333   
H      0.151895333333     0.279202333333     0.078344000000   
H      0.166902666667     0.000689333333     0.164206000000   
H      0.173714666667     0.031278000000     0.090175666667   
H      0.201485666667     0.054205666667     0.239967333333   
S      0.321749666667     0.158011000000     0.194447333333   
C      0.327591666667     0.162258000000     0.274341666667   
N      0.008154333333     0.169074666667     0.278807666667   
C      0.013990000000     0.172605333333     0.004472000000   
C      0.029038666667     0.180329000000     0.003920666667   
C      0.036692666667     0.177691000000     0.292976000000   
N      0.050593666667     0.184664000000     0.290250000000   
C      0.056808666667     0.194741333333     0.000000000000   
C      0.049380666667     0.197640000000     0.043745666667   
N      0.035487000000     0.190610333333     0.046554666667   
C      0.005758000000     0.168774000000     0.058817666667   
S      0.011675666667     0.171313000000     0.138709000000   
N      0.325184333333     0.161820666667     0.054654000000   
C      0.319334333333     0.158672333333     0.328791333333   
C      0.304224333333     0.151402333333     0.329457333333   
C      0.296706666667     0.143631666667     0.048253333333   
N      0.282807333333     0.136930666667     0.051313000000   
C      0.276384666667     0.138311333333     0.000000000000   
C      0.283632333333     0.146039333333     0.281282333333   
N      0.297547333333     0.152675333333     0.278092000000   
H      0.309217333333     0.156329333333     0.205069000000   
H      0.031768000000     0.169715333333     0.257575333333   
H      0.054335333333     0.205749666667     0.078344000000   
H      0.332498000000     0.166146666667     0.164206000000   
H      0.301724666667     0.142504666667     0.090175666667   
H      0.278501333333     0.147192333333     0.239967333333   
C      0.124890000000     0.225095333333     0.666665000000   
O      0.136971333333     0.227208000000     0.666663666667   
C      0.113993000000     0.210977000000     0.666666000000   
C      0.116134666667     0.200570666667     0.333333333333   
N      0.129658000000     0.203004333333     0.333333333333   
C      0.100021333333     0.208471333333     0.333334333333   
O      0.090227000000     0.196302666667     0.333335000000   
C      0.096642666667     0.219329000000     0.333335333333   
C      0.083786333333     0.216708666667     0.333335000000   
N      0.073183000000     0.202864000000     0.333333333333   
C      0.108066000000     0.233334333333     0.333334666667   
O      0.105379333333     0.242723666667     0.333335666667   
C      0.122261000000     0.236469333333     0.666666333333   
C      0.132330333333     0.249246333333     0.666666000000   
N      0.130279666667     0.260588000000     0.333333333333   
H      0.107791000000     0.190440333333     0.333333666667   
H      0.081058333333     0.224485666667     0.333336000000   
H      0.142536333333     0.251070666667     0.666665666667   
C      0.208443333333     0.108238000000     0.666665000000   
O      0.196362000000     0.106125333333     0.666663666667   
C      0.219340333333     0.122356333333     0.666666000000   
C      0.217198666667     0.132762666667     0.333333333333   
N      0.203675333333     0.130329000000     0.333333333333   
C      0.233312000000     0.124862000000     0.333334333333   
O      0.243106333333     0.137030666667     0.333335000000   
C      0.236690666667     0.114004333333     0.333335333333   
C      0.249547000000     0.116624666667     0.333335000000   
N      0.260150333333     0.130469333333     0.333333333333   
C      0.225267333333     0.099999000000     0.333334666667   
O      0.227954000000     0.090609666667     0.333335666667   
C      0.211072333333     0.096864000000     0.666666333333   
C      0.201003000000     0.084087000000     0.666666000000   
N      0.203053666667     0.072745333333     0.333333333333   
H      0.225542333333     0.142893000000     0.333333666667   
H      0.252275000000     0.108847666667     0.333336000000   
H      0.190797000000     0.082262666667     0.666665666667   
S      0.175300000000     0.163739333333     0.527780666667   
C      0.170993666667     0.165298000000     0.607675000000   
N      0.164049666667     0.172267000000     0.612141000000   
C      0.160462666667     0.174530666667     0.337805333333   
C      0.152600333333     0.181738666667     0.337254000000   
C      0.155197000000     0.191925666667     0.626309333333   
N      0.148096000000     0.198744666667     0.623583333333   
C      0.137930666667     0.194881666667     0.333333333333   
C      0.135070666667     0.184659666667     0.377079000000   
N      0.142228000000     0.177904000000     0.379888000000   
C      0.164368666667     0.170196333333     0.392151000000   
S      0.161777000000     0.173525666667     0.472042333333   
N      0.171449333333     0.163352000000     0.387987333333   
C      0.174652666667     0.160695000000     0.662124666667   
C      0.182060000000     0.152975666667     0.662790666667   
C      0.189917333333     0.153259666667     0.381586666667   
N      0.196745000000     0.146172333333     0.384646333333   
C      0.195402666667     0.138451666667     0.333333333333   
C      0.187589666667     0.137942666667     0.614615666667   
N      0.180827333333     0.145110000000     0.611425333333   
H      0.177076000000     0.153019333333     0.538402333333   
H      0.163242666667     0.194977000000     0.590908666667   
H      0.126890000000     0.181504333333     0.411677333333   
H      0.167053333333     0.166287000000     0.497539333333   
H      0.191014666667     0.159340333333     0.423509000000   
H      0.186467000000     0.131724666667     0.573300666667   
S      0.169404666667     0.011372333333     0.527780666667   
C      0.167869000000     0.005567000000     0.607675000000   
N      0.160916666667     0.325114333333     0.612141000000   
C      0.158667666667     0.319320333333     0.337805333333   
C      0.151481666667     0.304388666667     0.337254000000   
C      0.141231000000     0.296839333333     0.626309333333   
N      0.134431000000     0.283047666667     0.623583333333   
C      0.138381333333     0.276833000000     0.333333333333   
C      0.148669333333     0.284156666667     0.377079000000   
N      0.155405666667     0.297942000000     0.379888000000   
C      0.162994333333     0.327486000000     0.392151000000   
S      0.159668333333     0.321617666667     0.472042333333   
N      0.169820333333     0.007950333333     0.387987333333   
C      0.172467000000     0.013755666667     0.662124666667   
C      0.180170000000     0.028745000000     0.662790666667   
C      0.179830000000     0.036231333333     0.381586666667   
N      0.186902000000     0.050020000000     0.384646333333   
C      0.194666666667     0.056360000000     0.333333333333   
C      0.195232000000     0.049141000000     0.614615666667   
N      0.188079333333     0.035337666667     0.611425333333   
H      0.180160666667     0.023774333333     0.538402333333   
H      0.138110333333     0.301764000000     0.590908666667   
H      0.151895333333     0.279202333333     0.411677333333   
H      0.166902666667     0.000689333333     0.497539333333   
H      0.173714666667     0.031278000000     0.423509000000   
H      0.201485666667     0.054205666667     0.573300666667   
S      0.321749666667     0.158011000000     0.527780666667   
C      0.327591666667     0.162258000000     0.607675000000   
N      0.008154333333     0.169074666667     0.612141000000   
C      0.013990000000     0.172605333333     0.337805333333   
C      0.029038666667     0.180329000000     0.337254000000   
C      0.036692666667     0.177691000000     0.626309333333   
N      0.050593666667     0.184664000000     0.623583333333   
C      0.056808666667     0.194741333333     0.333333333333   
C      0.049380666667     0.197640000000     0.377079000000   
N      0.035487000000     0.190610333333     0.379888000000   
C      0.005758000000     0.168774000000     0.392151000000   
S      0.011675666667     0.171313000000     0.472042333333   
N      0.325184333333     0.161820666667     0.387987333333   
C      0.319334333333     0.158672333333     0.662124666667   
C      0.304224333333     0.151402333333     0.662790666667   
C      0.296706666667     0.143631666667     0.381586666667   
N      0.282807333333     0.136930666667     0.384646333333   
C      0.276384666667     0.138311333333     0.333333333333   
C      0.283632333333     0.146039333333     0.614615666667   
N      0.297547333333     0.152675333333     0.611425333333   
H      0.309217333333     0.156329333333     0.538402333333   
H      0.031768000000     0.169715333333     0.590908666667   
H      0.054335333333     0.205749666667     0.411677333333   
H      0.332498000000     0.166146666667     0.497539333333   
H      0.301724666667     0.142504666667     0.423509000000   
H      0.278501333333     0.147192333333     0.573300666667   
C      0.124890000000     0.225095333333     0.999998333333   
O      0.136971333333     0.227208000000     0.999997000000   
C      0.113993000000     0.210977000000     0.999999333333   
C      0.116134666667     0.200570666667     0.666666666667   
N      0.129658000000     0.203004333333     0.666666666667   
C      0.100021333333     0.208471333333     0.666667666667   
O      0.090227000000     0.196302666667     0.666668333333   
C      0.096642666667     0.219329000000     0.666668666667   
C      0.083786333333     0.216708666667     0.666668333333   
N      0.073183000000     0.202864000000     0.666666666667   
C      0.108066000000     0.233334333333     0.666668000000   
O      0.105379333333     0.242723666667     0.666669000000   
C      0.122261000000     0.236469333333     0.999999666667   
C      0.132330333333     0.249246333333     0.999999333333   
N      0.130279666667     0.260588000000     0.666666666667   
H      0.107791000000     0.190440333333     0.666667000000   
H      0.081058333333     0.224485666667     0.666669333333   
H      0.142536333333     0.251070666667     0.999999000000   
C      0.208443333333     0.108238000000     0.999998333333   
O      0.196362000000     0.106125333333     0.999997000000   
C      0.219340333333     0.122356333333     0.999999333333   
C      0.217198666667     0.132762666667     0.666666666667   
N      0.203675333333     0.130329000000     0.666666666667   
C      0.233312000000     0.124862000000     0.666667666667   
O      0.243106333333     0.137030666667     0.666668333333   
C      0.236690666667     0.114004333333     0.666668666667   
C      0.249547000000     0.116624666667     0.666668333333   
N      0.260150333333     0.130469333333     0.666666666667   
C      0.225267333333     0.099999000000     0.666668000000   
O      0.227954000000     0.090609666667     0.666669000000   
C      0.211072333333     0.096864000000     0.999999666667   
C      0.201003000000     0.084087000000     0.999999333333   
N      0.203053666667     0.072745333333     0.666666666667   
H      0.225542333333     0.142893000000     0.666667000000   
H      0.252275000000     0.108847666667     0.666669333333   
H      0.190797000000     0.082262666667     0.999999000000   
S      0.175300000000     0.163739333333     0.861114000000   
C      0.170993666667     0.165298000000     0.941008333333   
N      0.164049666667     0.172267000000     0.945474333333   
C      0.160462666667     0.174530666667     0.671138666667   
C      0.152600333333     0.181738666667     0.670587333333   
C      0.155197000000     0.191925666667     0.959642666667   
N      0.148096000000     0.198744666667     0.956916666667   
C      0.137930666667     0.194881666667     0.666666666667   
C      0.135070666667     0.184659666667     0.710412333333   
N      0.142228000000     0.177904000000     0.713221333333   
C      0.164368666667     0.170196333333     0.725484333333   
S      0.161777000000     0.173525666667     0.805375666667   
N      0.171449333333     0.163352000000     0.721320666667   
C      0.174652666667     0.160695000000     0.995458000000   
C      0.182060000000     0.152975666667     0.996124000000   
C      0.189917333333     0.153259666667     0.714920000000   
N      0.196745000000     0.146172333333     0.717979666667   
C      0.195402666667     0.138451666667     0.666666666667   
C      0.187589666667     0.137942666667     0.947949000000   
N      0.180827333333     0.145110000000     0.944758666667   
H      0.177076000000     0.153019333333     0.871735666667   
H      0.163242666667     0.194977000000     0.924242000000   
H      0.126890000000     0.181504333333     0.745010666667   
H      0.167053333333     0.166287000000     0.830872666667   
H      0.191014666667     0.159340333333     0.756842333333   
H      0.186467000000     0.131724666667     0.906634000000   
S      0.169404666667     0.011372333333     0.861114000000   
C      0.167869000000     0.005567000000     0.941008333333   
N      0.160916666667     0.325114333333     0.945474333333   
C      0.158667666667     0.319320333333     0.671138666667   
C      0.151481666667     0.304388666667     0.670587333333   
C      0.141231000000     0.296839333333     0.959642666667   
N      0.134431000000     0.283047666667     0.956916666667   
C      0.138381333333     0.276833000000     0.666666666667   
C      0.148669333333     0.284156666667     0.710412333333   
N      0.155405666667     0.297942000000     0.713221333333   
C      0.162994333333     0.327486000000     0.725484333333   
S      0.159668333333     0.321617666667     0.805375666667   
N      0.169820333333     0.007950333333     0.721320666667   
C      0.172467000000     0.013755666667     0.995458000000   
C      0.180170000000     0.028745000000     0.996124000000   
C      0.179830000000     0.036231333333     0.714920000000   
N      0.186902000000     0.050020000000     0.717979666667   
C      0.194666666667     0.056360000000     0.666666666667   
C      0.195232000000     0.049141000000     0.947949000000   
N      0.188079333333     0.035337666667     0.944758666667   
H      0.180160666667     0.023774333333     0.871735666667   
H      0.138110333333     0.301764000000     0.924242000000   
H      0.151895333333     0.279202333333     0.745010666667   
H      0.166902666667     0.000689333333     0.830872666667   
H      0.173714666667     0.031278000000     0.756842333333   
H      0.201485666667     0.054205666667     0.906634000000   
S      0.321749666667     0.158011000000     0.861114000000   
C      0.327591666667     0.162258000000     0.941008333333   
N      0.008154333333     0.169074666667     0.945474333333   
C      0.013990000000     0.172605333333     0.671138666667   
C      0.029038666667     0.180329000000     0.670587333333   
C      0.036692666667     0.177691000000     0.959642666667   
N      0.050593666667     0.184664000000     0.956916666667   
C      0.056808666667     0.194741333333     0.666666666667   
C      0.049380666667     0.197640000000     0.710412333333   
N      0.035487000000     0.190610333333     0.713221333333   
C      0.005758000000     0.168774000000     0.725484333333   
S      0.011675666667     0.171313000000     0.805375666667   
N      0.325184333333     0.161820666667     0.721320666667   
C      0.319334333333     0.158672333333     0.995458000000   
C      0.304224333333     0.151402333333     0.996124000000   
C      0.296706666667     0.143631666667     0.714920000000   
N      0.282807333333     0.136930666667     0.717979666667   
C      0.276384666667     0.138311333333     0.666666666667   
C      0.283632333333     0.146039333333     0.947949000000   
N      0.297547333333     0.152675333333     0.944758666667   
H      0.309217333333     0.156329333333     0.871735666667   
H      0.031768000000     0.169715333333     0.924242000000   
H      0.054335333333     0.205749666667     0.745010666667   
H      0.332498000000     0.166146666667     0.830872666667   
H      0.301724666667     0.142504666667     0.756842333333   
H      0.278501333333     0.147192333333     0.906634000000   
C      0.124890000000     0.558428666667     0.333331666667   
O      0.136971333333     0.560541333333     0.333330333333   
C      0.113993000000     0.544310333333     0.333332666667   
C      0.116134666667     0.533904000000     0.000000000000   
N      0.129658000000     0.536337666667     0.000000000000   
C      0.100021333333     0.541804666667     0.000001000000   
O      0.090227000000     0.529636000000     0.000001666667   
C      0.096642666667     0.552662333333     0.000002000000   
C      0.083786333333     0.550042000000     0.000001666667   
N      0.073183000000     0.536197333333     0.000000000000   
C      0.108066000000     0.566667666667     0.000001333333   
O      0.105379333333     0.576057000000     0.000002333333   
C      0.122261000000     0.569802666667     0.333333000000   
C      0.132330333333     0.582579666667     0.333332666667   
N      0.130279666667     0.593921333333     0.000000000000   
H      0.107791000000     0.523773666667     0.000000333333   
H      0.081058333333     0.557819000000     0.000002666667   
H      0.142536333333     0.584404000000     0.333332333333   
C      0.208443333333     0.441571333333     0.333331666667   
O      0.196362000000     0.439458666667     0.333330333333   
C      0.219340333333     0.455689666667     0.333332666667   
C      0.217198666667     0.466096000000     0.000000000000   
N      0.203675333333     0.463662333333     0.000000000000   
C      0.233312000000     0.458195333333     0.000001000000   
O      0.243106333333     0.470364000000     0.000001666667   
C      0.236690666667     0.447337666667     0.000002000000   
C      0.249547000000     0.449958000000     0.000001666667   
N      0.260150333333     0.463802666667     0.000000000000   
C      0.225267333333     0.433332333333     0.000001333333   
O      0.227954000000     0.423943000000     0.000002333333   
C      0.211072333333     0.430197333333     0.333333000000   
C      0.201003000000     0.417420333333     0.333332666667   
N      0.203053666667     0.406078666667     0.000000000000   
H      0.225542333333     0.476226333333     0.000000333333   
H      0.252275000000     0.442181000000     0.000002666667   
H      0.190797000000     0.415596000000     0.333332333333   
S      0.175300000000     0.497072666667     0.194447333333   
C      0.170993666667     0.498631333333     0.274341666667   
N      0.164049666667     0.505600333333     0.278807666667   
C      0.160462666667     0.507864000000     0.004472000000   
C      0.152600333333     0.515072000000     0.003920666667   
C      0.155197000000     0.525259000000     0.292976000000   
N      0.148096000000     0.532078000000     0.290250000000   
C      0.137930666667     0.528215000000     0.000000000000   
C      0.135070666667     0.517993000000     0.043745666667   
N      0.142228000000     0.511237333333     0.046554666667   
C      0.164368666667     0.503529666667     0.058817666667   
S      0.161777000000     0.506859000000     0.138709000000   
N      0.171449333333     0.496685333333     0.054654000000   
C      0.174652666667     0.494028333333     0.328791333333   
C      0.182060000000     0.486309000000     0.329457333333   
C      0.189917333333     0.486593000000     0.048253333333   
N      0.196745000000     0.479505666667     0.051313000000   
C      0.195402666667     0.471785000000     0.000000000000   
C      0.187589666667     0.471276000000     0.281282333333   
N      0.180827333333     0.478443333333     0.278092000000   
H      0.177076000000     0.486352666667     0.205069000000   
H      0.163242666667     0.528310333333     0.257575333333   
H      0.126890000000     0.514837666667     0.078344000000   
H      0.167053333333     0.499620333333     0.164206000000   
H      0.191014666667     0.492673666667     0.090175666667   
H      0.186467000000     0.465058000000     0.239967333333   
S      0.169404666667     0.344705666667     0.194447333333   
C      0.167869000000     0.338900333333     0.274341666667   
N      0.160916666667     0.658447666667     0.278807666667   
C      0.158667666667     0.652653666667     0.004472000000   
C      0.151481666667     0.637722000000     0.003920666667   
C      0.141231000000     0.630172666667     0.292976000000   
N      0.134431000000     0.616381000000     0.290250000000   
C      0.138381333333     0.610166333333     0.000000000000   
C      0.148669333333     0.617490000000     0.043745666667   
N      0.155405666667     0.631275333333     0.046554666667   
C      0.162994333333     0.660819333333     0.058817666667   
S      0.159668333333     0.654951000000     0.138709000000   
N      0.169820333333     0.341283666667     0.054654000000   
C      0.172467000000     0.347089000000     0.328791333333   
C      0.180170000000     0.362078333333     0.329457333333   
C      0.179830000000     0.369564666667     0.048253333333   
N      0.186902000000     0.383353333333     0.051313000000   
C      0.194666666667     0.389693333333     0.000000000000   
C      0.195232000000     0.382474333333     0.281282333333   
N      0.188079333333     0.368671000000     0.278092000000   
H      0.180160666667     0.357107666667     0.205069000000   
H      0.138110333333     0.635097333333     0.257575333333   
H      0.151895333333     0.612535666667     0.078344000000   
H      0.166902666667     0.334022666667     0.164206000000   
H      0.173714666667     0.364611333333     0.090175666667   
H      0.201485666667     0.387539000000     0.239967333333   
S      0.321749666667     0.491344333333     0.194447333333   
C      0.327591666667     0.495591333333     0.274341666667   
N      0.008154333333     0.502408000000     0.278807666667   
C      0.013990000000     0.505938666667     0.004472000000   
C      0.029038666667     0.513662333333     0.003920666667   
C      0.036692666667     0.511024333333     0.292976000000   
N      0.050593666667     0.517997333333     0.290250000000   
C      0.056808666667     0.528074666667     0.000000000000   
C      0.049380666667     0.530973333333     0.043745666667   
N      0.035487000000     0.523943666667     0.046554666667   
C      0.005758000000     0.502107333333     0.058817666667   
S      0.011675666667     0.504646333333     0.138709000000   
N      0.325184333333     0.495154000000     0.054654000000   
C      0.319334333333     0.492005666667     0.328791333333   
C      0.304224333333     0.484735666667     0.329457333333   
C      0.296706666667     0.476965000000     0.048253333333   
N      0.282807333333     0.470264000000     0.051313000000   
C      0.276384666667     0.471644666667     0.000000000000   
C      0.283632333333     0.479372666667     0.281282333333   
N      0.297547333333     0.486008666667     0.278092000000   
H      0.309217333333     0.489662666667     0.205069000000   
H      0.031768000000     0.503048666667     0.257575333333   
H      0.054335333333     0.539083000000     0.078344000000   
H      0.332498000000     0.499480000000     0.164206000000   
H      0.301724666667     0.475838000000     0.090175666667   
H      0.278501333333     0.480525666667     0.239967333333   
C      0.124890000000     0.558428666667     0.666665000000   
O      0.136971333333     0.560541333333     0.666663666667   
C      0.113993000000     0.544310333333     0.666666000000   
C      0.116134666667     0.533904000000     0.333333333333   
N      0.129658000000     0.536337666667     0.333333333333   
C      0.100021333333     0.541804666667     0.333334333333   
O      0.090227000000     0.529636000000     0.333335000000   
C      0.096642666667     0.552662333333     0.333335333333   
C      0.083786333333     0.550042000000     0.333335000000   
N      0.073183000000     0.536197333333     0.333333333333   
C      0.108066000000     0.566667666667     0.333334666667   
O      0.105379333333     0.576057000000     0.333335666667   
C      0.122261000000     0.569802666667     0.666666333333   
C      0.132330333333     0.582579666667     0.666666000000   
N      0.130279666667     0.593921333333     0.333333333333   
H      0.107791000000     0.523773666667     0.333333666667   